128
Lattice="14.567458257780915 0.0 0.0 -7.283729128890462 12.615788919807672 0.0 0.0 0.0 33.04905420593702" Properties=species:S:1:pos:R:3:move_mask:L:1:spacegroup_kinds:I:1:forces:R:3 spacegroup="P 1" unit_cell=conventional occupancy="_JSON {\"0\": {\"O\": 1.0}, \"1\": {\"O\": 1.0}, \"2\": {\"O\": 1.0}, \"3\": {\"O\": 1.0}, \"4\": {\"O\": 1.0}, \"5\": {\"O\": 1.0}, \"6\": {\"O\": 1.0}, \"7\": {\"O\": 1.0}, \"8\": {\"O\": 1.0}, \"9\": {\"O\": 1.0}, \"10\": {\"O\": 1.0}, \"11\": {\"O\": 1.0}, \"12\": {\"In\": 1.0}, \"13\": {\"In\": 1.0}, \"14\": {\"In\": 1.0}, \"15\": {\"In\": 1.0}, \"16\": {\"In\": 1.0}, \"17\": {\"In\": 1.0}, \"18\": {\"In\": 1.0}, \"19\": {\"In\": 1.0}, \"20\": {\"In\": 1.0}, \"21\": {\"In\": 1.0}, \"22\": {\"In\": 1.0}, \"23\": {\"In\": 1.0}, \"24\": {\"In\": 1.0}, \"25\": {\"In\": 1.0}, \"26\": {\"In\": 1.0}, \"27\": {\"In\": 1.0}, \"28\": {\"O\": 1.0}, \"29\": {\"O\": 1.0}, \"30\": {\"O\": 1.0}, \"31\": {\"O\": 1.0}, \"32\": {\"O\": 1.0}, \"33\": {\"O\": 1.0}, \"34\": {\"O\": 1.0}, \"35\": {\"O\": 1.0}, \"36\": {\"O\": 1.0}, \"37\": {\"O\": 1.0}, \"38\": {\"O\": 1.0}, \"39\": {\"O\": 1.0}, \"40\": {\"O\": 1.0}, \"41\": {\"O\": 1.0}, \"42\": {\"O\": 1.0}, \"43\": {\"O\": 1.0}, \"44\": {\"O\": 1.0}, \"45\": {\"O\": 1.0}, \"46\": {\"O\": 1.0}, \"47\": {\"O\": 1.0}, \"48\": {\"O\": 1.0}, \"49\": {\"O\": 1.0}, \"50\": {\"O\": 1.0}, \"51\": {\"O\": 1.0}, \"52\": {\"In\": 1.0}, \"53\": {\"In\": 1.0}, \"54\": {\"In\": 1.0}, \"55\": {\"In\": 1.0}, \"56\": {\"In\": 1.0}, \"57\": {\"In\": 1.0}, \"58\": {\"In\": 1.0}, \"59\": {\"In\": 1.0}, \"60\": {\"In\": 1.0}, \"61\": {\"In\": 1.0}, \"62\": {\"In\": 1.0}, \"63\": {\"In\": 1.0}, \"64\": {\"In\": 1.0}, \"65\": {\"In\": 1.0}, \"66\": {\"In\": 1.0}, \"67\": {\"In\": 1.0}, \"68\": {\"O\": 1.0}, \"69\": {\"O\": 1.0}, \"70\": {\"O\": 1.0}, \"71\": {\"O\": 1.0}, \"72\": {\"O\": 1.0}, \"73\": {\"O\": 1.0}, \"74\": {\"O\": 1.0}, \"75\": {\"O\": 1.0}, \"76\": {\"O\": 1.0}, \"77\": {\"O\": 1.0}, \"78\": {\"O\": 1.0}, \"79\": {\"O\": 1.0}, \"80\": {\"O\": 1.0}, \"81\": {\"O\": 1.0}, \"82\": {\"O\": 1.0}, \"83\": {\"O\": 1.0}, \"84\": {\"O\": 1.0}, \"85\": {\"O\": 1.0}, \"86\": {\"O\": 1.0}, \"87\": {\"O\": 1.0}, \"88\": {\"O\": 1.0}, \"89\": {\"O\": 1.0}, \"90\": {\"O\": 1.0}, \"91\": {\"O\": 1.0}, \"92\": {\"In\": 1.0}, \"93\": {\"In\": 1.0}, \"94\": {\"In\": 1.0}, \"95\": {\"In\": 1.0}, \"96\": {\"In\": 1.0}, \"97\": {\"In\": 1.0}, \"98\": {\"In\": 1.0}, \"99\": {\"In\": 1.0}, \"100\": {\"In\": 1.0}, \"101\": {\"In\": 1.0}, \"102\": {\"In\": 1.0}, \"103\": {\"In\": 1.0}, \"104\": {\"In\": 1.0}, \"105\": {\"In\": 1.0}, \"106\": {\"In\": 1.0}, \"107\": {\"In\": 1.0}, \"108\": {\"O\": 1.0}, \"109\": {\"O\": 1.0}, \"110\": {\"O\": 1.0}, \"111\": {\"O\": 1.0}, \"112\": {\"O\": 1.0}, \"113\": {\"O\": 1.0}, \"114\": {\"O\": 1.0}, \"115\": {\"O\": 1.0}, \"116\": {\"O\": 1.0}, \"117\": {\"O\": 1.0}, \"118\": {\"O\": 1.0}, \"119\": {\"O\": 1.0}}" energy=-707.06494140625 free_energy=-707.06494140625 stress="0.007332854904234409 0.0001610978797543794 -1.528665416117292e-05 0.0001610978797543794 0.007211922202259302 -1.4885498785588425e-05 -1.528665416117292e-05 -1.4885498785588425e-05 -6.823617150075734e-05" pbc="T T T"
O        5.56112551       5.29730098      12.44442493  F        0      -0.00214028       0.01033950       0.00164354
O        7.19929797       2.16742567      12.44442488  F        1       0.00868007      -0.00488630       0.00205791
O        9.09076378       5.15106294      12.44442506  F        2       0.01313892       0.00134244       0.00890434
O        3.56236441       2.32744963      12.81467041  F        3       0.00167739      -0.00466872      -0.01980853
O       10.77064547       1.92137361      12.81467059  F        4       0.00308010       0.00632903      -0.00404805
O        7.51817736       8.36696557      12.81467060  F        5      -0.00532059       0.00211573      -0.00976026
O       -3.86713652       8.43746206      12.95843886  F        6       0.02254988      -0.01659653       0.01429594
O        1.91024068       5.04801920      12.95843918  F        7      -0.01647472       0.03094765       0.01424879
O        1.95689587      11.74609578      12.95843921  F        8      -0.00976053      -0.01754901       0.00919133
O       -5.62751792      11.43742505      12.90107995  F        9       0.00865329       0.00192606      -0.00498670
O        0.19238766       2.02350350      12.90107932  F       10      -0.03755988       0.01493180      -0.00297111
O        5.43512990      11.77064967      12.90107909  F       11      -0.00087378      -0.02176432       0.00225562
In       2.02827288       0.93415595      13.34696164  F       12       0.01226728       0.00537431       0.07174741
In       5.45297263       1.43044201      13.46548669  F       13      -0.01006104      -0.00196986       0.00134771
In       5.79604177       7.17815473      13.46548635  F       14      -0.00503004      -0.00782639      -0.02039830
In       7.07859496      10.39217548      13.34696140  F       15       0.00918855      -0.00243009       0.02345701
In      10.60217256       4.00719198      13.46548647  F       16      -0.01294021      -0.00498517      -0.04080297
In      12.74431985       1.28945811      13.34696112  F       17       0.00030396      -0.00895549       0.02054065
In      -3.76992867      10.45841758      13.58493911  F       18      -0.00660865       0.02332360       0.02031320
In       0.11143913       4.12172609      13.58493797  F       19       0.02305942      -0.01736481       0.01518606
In       7.28372934       4.20526284      13.28077194  F       20      -0.02210906      -0.00470325      -0.00012431
In       3.65848992      10.65143468      13.58493907  F       21       0.01004435       0.00206184      -0.00513788
In      -2.12514371       7.57248039      13.82744761  F       22      -0.03091389       0.02638124      -0.05211040
In       1.78834112       6.98912009      13.82744861  F       23       0.02755081      -0.03938617      -0.05098075
In       3.89762555       4.37439996      13.55369945  F       24       0.01267020      -0.02122862       0.01667724
In       0.33680320      10.66997741      13.82744770  F       25       0.01458732       0.02847505      -0.00669952
In       8.83030441       1.18824328      13.55369950  F       26      -0.00989416       0.00715981      -0.00268829
In       9.12325787       7.05314622      13.55369981  F       27      -0.02739897       0.00085517      -0.00857174
O        1.94314284       9.09920259      13.79983277  F       28      -0.00361850       0.00782931       0.01071340
O       -0.37515974       6.38337672      13.79983300  F       29       0.00668019      -0.00064409       0.02566785
O       -1.56798334       9.74899853      13.79983313  F       30      -0.00556517      -0.02900071       0.00195467
O       -1.90665604       3.49451490      14.07374983  F       31      -0.02013333       0.02292800       0.03376168
O       -3.30406258      12.51974383      14.07375025  F       32       0.01515976      -0.01589513      -0.03971937
O        5.21071859       9.21731872      14.07374980  F       33      -0.01269987      -0.00758037      -0.00825904
O        6.95268262       0.11029125      14.35625235  F       34       0.01352277      -0.00542246      -0.00795154
O        3.90290295       6.53944318      14.35625252  F       35      -0.01364198       0.02391076       0.00102932
O       10.99560128       5.96605484      14.35625280  F       36       0.01959080      -0.01317254       0.04460827
O        5.60077915       3.29585311      14.56420047  F       37       0.01517329       0.02932426      -0.02268231
O        8.91277589       3.20249084      14.56420075  F       38       0.00839299      -0.00643109       0.01478016
O        7.33763173       6.11744518      14.56420087  F       39       0.03314187      -0.00036539       0.00000417
O        1.68336921       1.02548187      15.48953070  F       40      -0.02127936      -0.00487623      -0.07033676
O       12.83768043       0.94510034      15.48953027  F       41      -0.06331457       0.01815481      -0.01650397
O        7.33013789      10.64520717      15.48953039  F       42      -0.04353105      -0.02969030      -0.02146208
O       -3.87048772      10.25806959      15.75644575  F       43       0.05935582      -0.04087058      -0.01894179
O        0.33522381       4.13481358      15.75644581  F       44      -0.08799079       0.07827014      -0.04079059
O        3.53526358      10.83869431      15.75644572  F       45      -0.02599245      -0.01591477       0.01556568
O        9.24484356       0.74344663      15.94429150  F       46       0.06929378       0.01505497      -0.00742565
O        3.30515102       4.23779662      15.94429168  F       47      -0.04108196       0.10219186       0.00348280
O        9.30119327       7.63454631      15.94429132  F       48       0.00324525      -0.01615584       0.01017952
O       -1.89390768       7.68105065      15.98554452  F       49       0.06194204      -0.09762439       0.08935466
O        1.57869822       7.13509120      15.98554413  F       50      -0.05775377      -0.00479821       0.10781385
O        0.31520971      10.41543579      15.98554439  F       51       0.02831125      -0.05783981       0.00627357
In      -1.57901381       3.03754313      16.29163881  F       52       0.12473788      -0.17769514      -0.03080436
In      -3.86363272      12.46448245      16.29163869  F       53      -0.03242060       0.16397221       0.16492254
In      -0.30746998       6.17668715      16.39885574  F       54       0.12110239      -0.03446169      -0.23518316
In      -1.78082649       9.79372205      16.39885556  F       55      -0.00522768       0.08774380       0.00750428
In       2.08829635       9.26116873      16.39885555  F       56      -0.01618343       0.02812124      -0.00251684
In       5.44264624       9.72955081      16.29163837  F       57       0.03903873       0.02353814      -0.03039424
In      14.56745775       0.00000023      16.52452729  F       58       0.09609917       0.05077613       0.04654393
In       7.28372884       0.00000046      16.52452727  F       59      -0.02941961       0.01862210      -0.02195438
In       3.64186448       6.30789445      16.52452688  F       60       0.10351638      -0.05850057      -0.13624431
In      -3.64186467       6.30789479      16.52452729  F       61      -0.17876670       0.08638629      -0.25714841
In       9.06455585       2.82206686      16.65019864  F       62      -0.08422324      -0.05411962      -0.08542277
In       1.84108280       2.88623741      16.75741682  F       63       0.02402221      -0.13859278       0.04183687
In       5.19543306       3.35462016      16.65019954  F       64      -0.07285590      -0.11968237       0.11449709
In      11.14736129       0.15130547      16.75741597  F       65       0.01740614      -0.02813746      -0.02880891
In       7.59119877       6.43910216      16.65019924  F       66      -0.04719604       0.01059233      -0.08611877
In       8.86274257       9.57824538      16.75741545  F       67       0.00051811       0.07199176      -0.08022092
O        9.17763668       4.93473784      17.06350958  F       68       0.02832996       0.00273475       0.05243338
O        6.96851909       2.20035367      17.06350993  F       69       0.16488522      -0.03397101      -0.04229168
O        5.70503103       5.48069763      17.06350990  F       70       0.07397214       0.12155453      -0.03673885
O       -2.01746347       4.98124236      17.10476289  F       71      -0.08706344       0.09005454       0.14510113
O       -1.96111486      11.87234229      17.10476307  F       72       0.05287266      -0.09564659       0.02483876
O        3.97857827       8.37799246      17.10476382  F       73      -0.01543805       0.02682422       0.03958994
O        6.94850543       8.48097521      17.29260816  F       74       0.01827919      -0.02560508       0.06239136
O       11.15421650       2.35771879      17.29260829  F       75       0.01670373       0.05922678      -0.01065492
O        3.74846506       1.77709453      17.29260778  F       76      -0.07355104       0.27582771       0.35085982
O       -0.04640858       1.97058198      17.55952389  F       77      -0.10999413      -0.00421383       0.24433401
O       -5.55395094      11.67068958      17.55952349  F       78      -0.03288789      -0.27078623      -0.32770792
O        5.60035973      11.59030666      17.55952404  F       79      -0.03498151      -0.01904343      -0.02886190
O       -1.60656939       9.40180276      18.48463081  T       80      -0.00110563      -0.00871468       0.00331408
O        1.68232264       9.29210818      18.49359085  T       81      -0.00225873       0.00056840      -0.01281065
O       -0.05109121       6.41023626      18.50006114  T       82       0.00651002       0.00286180       0.01150602
O        3.40979405       6.09169421      18.69232157  T       83      -0.00651138      -0.00241607      -0.01088921
O       -3.74285915       6.67728813      18.68144776  T       84       0.00597677       0.01117778       0.01025138
O        0.35950670      12.49447357      18.67917432  T       85       0.00365049      -0.00568052       0.00427856
O        9.19936279       9.11647174      18.98141736  T       86       0.00145803       0.00110674       0.00057426
O        1.93181578       3.44677130      18.92995139  T       87      -0.00266497       0.00382692      -0.00747290
O       10.60430805       0.09860869      18.98885048  T       88       0.00534922       0.00842911      -0.00299339
O        8.86760409       2.86364018      19.25572265  T       89      -0.00128600       0.00797188       0.01257414
O        5.34956310       3.52230094      19.18781520  T       90       0.00382323      -0.00958973      -0.00520730
O        7.66552911       6.23780210      19.26008651  T       91      -0.00356278      -0.00157189       0.00534576
In      -1.91574580       5.64321665      19.42120800  T       92       0.01178908       0.01320587      -0.00278554
In      -1.53736080      11.44180901      19.48883730  T       93       0.00119546       0.00132905      -0.00175180
In       6.95369133       1.93813240      19.21487176  T       94      -0.00579362      -0.00036243       0.00271231
In       3.40714020       8.25283668      19.48432285  T       95       0.00369377       0.00416934       0.01184852
In       5.51497492       5.62377708      19.22401063  T       96       0.00257790      -0.02010013       0.00258543
In       9.39106999       5.03010089      19.22327512  T       97      -0.00252229      -0.00487394      -0.00619777
In       0.00914437       8.42331523      19.78120168  T       98       0.00739661       0.00347979       0.00003703
In       3.64270630       2.05208750      19.55909382  T       99      -0.00634201       0.02803322      -0.00106285
In      11.06476373       2.16032975      19.45278098  T      100       0.00528498      -0.01279711      -0.00594215
In       7.17366556       8.49977494      19.46553696  T      101      -0.01383977       0.00115993       0.00338723
In      -5.42876240      11.29050294      19.67704283  T      102       0.00746033       0.01327383      -0.00657262
In      -3.30920363       8.63303098      19.59518677  T      103       0.00282186      -0.00358310      -0.00563821
In       0.29786316       2.11317919      19.77585171  T      104       0.00677103      -0.00121721       0.01181736
In       1.56009979       5.45520773      19.56665478  T      105       0.01814079       0.00547287      -0.01109365
In       1.83781925      11.18314314      19.58539602  T      106       0.00438495       0.00268287       0.00039195
In       5.26730308      11.68288970      19.69498961  T      107      -0.00457624      -0.00074776       0.00569424
O        1.93564676       0.75539422      19.95985344  T      108      -0.00652715      -0.02369514       0.00027084
O        7.10022302      10.59374301      20.14430478  T      109      -0.00248095      -0.01246364       0.00330919
O       12.93730807       1.19860315      20.12037177  T      110      -0.01450521      -0.00035988       0.00023955
O        5.37910220       7.56422797      20.09118282  T      111       0.01132172       0.00106995       0.00858223
O       11.17129197       4.19836214      20.06534531  T      112       0.00321552      -0.00439525       0.00055951
O        5.35471681       0.86927300      20.06605113  T      113       0.00129423      -0.00101109       0.00055701
O       -0.33080165       4.31370953      20.35229235  T      114      -0.01334593       0.01324762      -0.01081067
O       -3.45666367      10.68068975      20.26315273  T      115      -0.00645037      -0.01529317      -0.00018895
O        3.72822191      10.28854365      20.22989445  T      116      -0.00157347       0.00005285      -0.00303936
O       -1.80185891       7.46605234      20.60228105  T      117      -0.01051781      -0.00295441       0.00295663
O        0.09398205      10.44737244      20.60793035  T      118      -0.00462130       0.00503772      -0.00052595
O        1.72504468       7.29929972      20.61146707  T      119       0.00491610      -0.00103071      -0.00250036
O        0.95362070       2.54992100      21.96156609  T        0      -0.02470005       0.00418944       0.00768863
O        3.16754978       2.95816691      21.59052032  T        0       0.01959032       0.00884143       0.00939333
C        2.44632216       2.33087450      23.78087861  T        0      -0.00838239      -0.00204110      -0.00555181
C        2.17414128       2.62612300      22.32062354  T        0       0.01071614      -0.01256788       0.00319350
H        2.04649344       3.14314796      24.40395681  T        0       0.00841091       0.01737533      -0.00476193
H        1.91018320       1.41904536      24.07046894  T        0       0.00845817      -0.00077588       0.02071625
H        3.52143093       2.22408655      23.95842737  T        0      -0.00376810       0.00883177       0.01532228
H       -0.38469040       4.23767359      21.32679296  T        0       0.01228147      -0.01529565      -0.00898546
