128
Lattice="14.567458257780915 0.0 0.0 -7.283729128890462 12.615788919807672 0.0 0.0 0.0 33.04905420593702" Properties=species:S:1:pos:R:3:move_mask:L:1:spacegroup_kinds:I:1:forces:R:3 spacegroup="P 1" unit_cell=conventional occupancy="_JSON {\"0\": {\"O\": 1.0}, \"1\": {\"O\": 1.0}, \"2\": {\"O\": 1.0}, \"3\": {\"O\": 1.0}, \"4\": {\"O\": 1.0}, \"5\": {\"O\": 1.0}, \"6\": {\"O\": 1.0}, \"7\": {\"O\": 1.0}, \"8\": {\"O\": 1.0}, \"9\": {\"O\": 1.0}, \"10\": {\"O\": 1.0}, \"11\": {\"O\": 1.0}, \"12\": {\"In\": 1.0}, \"13\": {\"In\": 1.0}, \"14\": {\"In\": 1.0}, \"15\": {\"In\": 1.0}, \"16\": {\"In\": 1.0}, \"17\": {\"In\": 1.0}, \"18\": {\"In\": 1.0}, \"19\": {\"In\": 1.0}, \"20\": {\"In\": 1.0}, \"21\": {\"In\": 1.0}, \"22\": {\"In\": 1.0}, \"23\": {\"In\": 1.0}, \"24\": {\"In\": 1.0}, \"25\": {\"In\": 1.0}, \"26\": {\"In\": 1.0}, \"27\": {\"In\": 1.0}, \"28\": {\"O\": 1.0}, \"29\": {\"O\": 1.0}, \"30\": {\"O\": 1.0}, \"31\": {\"O\": 1.0}, \"32\": {\"O\": 1.0}, \"33\": {\"O\": 1.0}, \"34\": {\"O\": 1.0}, \"35\": {\"O\": 1.0}, \"36\": {\"O\": 1.0}, \"37\": {\"O\": 1.0}, \"38\": {\"O\": 1.0}, \"39\": {\"O\": 1.0}, \"40\": {\"O\": 1.0}, \"41\": {\"O\": 1.0}, \"42\": {\"O\": 1.0}, \"43\": {\"O\": 1.0}, \"44\": {\"O\": 1.0}, \"45\": {\"O\": 1.0}, \"46\": {\"O\": 1.0}, \"47\": {\"O\": 1.0}, \"48\": {\"O\": 1.0}, \"49\": {\"O\": 1.0}, \"50\": {\"O\": 1.0}, \"51\": {\"O\": 1.0}, \"52\": {\"In\": 1.0}, \"53\": {\"In\": 1.0}, \"54\": {\"In\": 1.0}, \"55\": {\"In\": 1.0}, \"56\": {\"In\": 1.0}, \"57\": {\"In\": 1.0}, \"58\": {\"In\": 1.0}, \"59\": {\"In\": 1.0}, \"60\": {\"In\": 1.0}, \"61\": {\"In\": 1.0}, \"62\": {\"In\": 1.0}, \"63\": {\"In\": 1.0}, \"64\": {\"In\": 1.0}, \"65\": {\"In\": 1.0}, \"66\": {\"In\": 1.0}, \"67\": {\"In\": 1.0}, \"68\": {\"O\": 1.0}, \"69\": {\"O\": 1.0}, \"70\": {\"O\": 1.0}, \"71\": {\"O\": 1.0}, \"72\": {\"O\": 1.0}, \"73\": {\"O\": 1.0}, \"74\": {\"O\": 1.0}, \"75\": {\"O\": 1.0}, \"76\": {\"O\": 1.0}, \"77\": {\"O\": 1.0}, \"78\": {\"O\": 1.0}, \"79\": {\"O\": 1.0}, \"80\": {\"O\": 1.0}, \"81\": {\"O\": 1.0}, \"82\": {\"O\": 1.0}, \"83\": {\"O\": 1.0}, \"84\": {\"O\": 1.0}, \"85\": {\"O\": 1.0}, \"86\": {\"O\": 1.0}, \"87\": {\"O\": 1.0}, \"88\": {\"O\": 1.0}, \"89\": {\"O\": 1.0}, \"90\": {\"O\": 1.0}, \"91\": {\"O\": 1.0}, \"92\": {\"In\": 1.0}, \"93\": {\"In\": 1.0}, \"94\": {\"In\": 1.0}, \"95\": {\"In\": 1.0}, \"96\": {\"In\": 1.0}, \"97\": {\"In\": 1.0}, \"98\": {\"In\": 1.0}, \"99\": {\"In\": 1.0}, \"100\": {\"In\": 1.0}, \"101\": {\"In\": 1.0}, \"102\": {\"In\": 1.0}, \"103\": {\"In\": 1.0}, \"104\": {\"In\": 1.0}, \"105\": {\"In\": 1.0}, \"106\": {\"In\": 1.0}, \"107\": {\"In\": 1.0}, \"108\": {\"O\": 1.0}, \"109\": {\"O\": 1.0}, \"110\": {\"O\": 1.0}, \"111\": {\"O\": 1.0}, \"112\": {\"O\": 1.0}, \"113\": {\"O\": 1.0}, \"114\": {\"O\": 1.0}, \"115\": {\"O\": 1.0}, \"116\": {\"O\": 1.0}, \"117\": {\"O\": 1.0}, \"118\": {\"O\": 1.0}, \"119\": {\"O\": 1.0}}" energy=-707.643310546875 free_energy=-707.643310546875 stress="0.007584353908896446 -8.358530612895265e-05 3.6956422263756394e-05 -8.358530612895265e-05 0.00741652911528945 2.129696076735854e-05 3.6956422263756394e-05 2.129696076735854e-05 -6.428259439417161e-06" pbc="T T T"
O        5.56112551       5.29730098      12.44442493  F        0      -0.00782111       0.02012664       0.00633800
O        7.19929797       2.16742567      12.44442488  F        1       0.00934727      -0.01015306      -0.00152814
O        9.09076378       5.15106294      12.44442506  F        2       0.00963667       0.00513222       0.00193679
O        3.56236441       2.32744963      12.81467041  F        3      -0.00206020      -0.01059726      -0.02505440
O       10.77064547       1.92137361      12.81467059  F        4       0.00426672      -0.00171280      -0.01260984
O        7.51817736       8.36696557      12.81467060  F        5      -0.01448959       0.00872532      -0.00330609
O       -3.86713652       8.43746206      12.95843886  F        6       0.02263846      -0.00872275       0.01330549
O        1.91024068       5.04801920      12.95843918  F        7      -0.00828305       0.04123168       0.00608289
O        1.95689587      11.74609578      12.95843921  F        8      -0.00433481      -0.02912155       0.01928484
O       -5.62751792      11.43742505      12.90107995  F        9       0.00251778      -0.00208926      -0.00598019
O        0.19238766       2.02350350      12.90107932  F       10      -0.03571633       0.00621252      -0.01020098
O        5.43512990      11.77064967      12.90107909  F       11      -0.00446508      -0.03354313       0.00793165
In       2.02827288       0.93415595      13.34696164  F       12       0.01227083       0.01805853       0.07399231
In       5.45297263       1.43044201      13.46548669  F       13      -0.01194709       0.00943009       0.01101558
In       5.79604177       7.17815473      13.46548635  F       14       0.01874474      -0.03303683      -0.03679705
In       7.07859496      10.39217548      13.34696140  F       15       0.02370267       0.00307328       0.01196630
In      10.60217256       4.00719198      13.46548647  F       16      -0.00167505      -0.00270644      -0.01883622
In      12.74431985       1.28945811      13.34696112  F       17       0.00173368       0.01315594       0.02325848
In      -3.76992867      10.45841758      13.58493911  F       18      -0.00414645       0.02830504       0.01830724
In       0.11143913       4.12172609      13.58493797  F       19       0.01263523      -0.02091726       0.04078835
In       7.28372934       4.20526284      13.28077194  F       20      -0.02116720      -0.01558097       0.00887132
In       3.65848992      10.65143468      13.58493907  F       21       0.00199934       0.02031259      -0.05197386
In      -2.12514371       7.57248039      13.82744761  F       22      -0.03132480       0.00479850      -0.04661997
In       1.78834112       6.98912009      13.82744861  F       23       0.00062416      -0.06336269      -0.04360230
In       3.89762555       4.37439996      13.55369945  F       24       0.01206234      -0.04593857       0.03975887
In       0.33680320      10.66997741      13.82744770  F       25       0.00179626       0.04753681      -0.03983049
In       8.83030441       1.18824328      13.55369950  F       26      -0.00982147       0.02201898       0.00861975
In       9.12325787       7.05314622      13.55369981  F       27      -0.01564276      -0.00741088       0.00103312
O        1.94314284       9.09920259      13.79983277  F       28       0.01228469       0.01462364       0.04391855
O       -0.37515974       6.38337672      13.79983300  F       29       0.01364487       0.01609147       0.01972318
O       -1.56798334       9.74899853      13.79983313  F       30       0.00417501      -0.02244221       0.01001674
O       -1.90665604       3.49451490      14.07374983  F       31      -0.01884276       0.01083297      -0.01097777
O       -3.30406258      12.51974383      14.07375025  F       32       0.01608017      -0.03089252      -0.05224346
O        5.21071859       9.21731872      14.07374980  F       33      -0.02899203      -0.01441401       0.05801281
O        6.95268262       0.11029125      14.35625235  F       34       0.01342788      -0.02751704      -0.00275478
O        3.90290295       6.53944318      14.35625252  F       35      -0.00656993       0.07312876       0.05846308
O       10.99560128       5.96605484      14.35625280  F       36       0.01240897       0.00247031       0.01984331
O        5.60077915       3.29585311      14.56420047  F       37       0.02259572       0.03364408      -0.05276102
O        8.91277589       3.20249084      14.56420075  F       38       0.00056502      -0.00939918      -0.00465399
O        7.33763173       6.11744518      14.56420087  F       39       0.02252385       0.01271252      -0.00434822
O        1.68336921       1.02548187      15.48953070  F       40      -0.05753075      -0.04273593      -0.08653271
O       12.83768043       0.94510034      15.48953027  F       41      -0.06439652      -0.02337171      -0.03584363
O        7.33013789      10.64520717      15.48953039  F       42      -0.03790423      -0.03555428      -0.00694884
O       -3.87048772      10.25806959      15.75644575  F       43       0.04219064      -0.02473593      -0.01035502
O        0.33522381       4.13481358      15.75644581  F       44      -0.06611419       0.10457286      -0.05024428
O        3.53526358      10.83869431      15.75644572  F       45      -0.04450035      -0.11919060       0.06007760
O        9.24484356       0.74344663      15.94429150  F       46       0.04515161      -0.02551377      -0.03275734
O        3.30515102       4.23779662      15.94429168  F       47       0.03007311       0.22618555      -0.04340699
O        9.30119327       7.63454631      15.94429132  F       48      -0.00877210      -0.00698528      -0.00190677
O       -1.89390768       7.68105065      15.98554452  F       49       0.11109627      -0.04815722       0.08835790
O        1.57869822       7.13509120      15.98554413  F       50       0.02231368       0.08019006       0.02869111
O        0.31520971      10.41543579      15.98554439  F       51       0.05598064      -0.08846828       0.08391023
In      -1.57901381       3.03754313      16.29163881  F       52       0.08239362      -0.08242344       0.01871923
In      -3.86363272      12.46448245      16.29163869  F       53      -0.01148356       0.26157016       0.15903154
In      -0.30746998       6.17668715      16.39885574  F       54       0.11742128      -0.07993145       0.20852223
In      -1.78082649       9.79372205      16.39885556  F       55      -0.09141687       0.10016539      -0.21728304
In       2.08829635       9.26116873      16.39885555  F       56      -0.16756906       0.04463686      -0.29451501
In       5.44264624       9.72955081      16.29163837  F       57       0.19225380       0.14242047      -0.11285432
In      14.56745775       0.00000023      16.52452729  F       58       0.09351582       0.08714437       0.01265634
In       7.28372884       0.00000046      16.52452727  F       59      -0.02360393       0.11120182      -0.01942181
In       3.64186448       6.30789445      16.52452688  F       60      -0.05436200      -0.32683519      -0.04596130
In      -3.64186467       6.30789479      16.52452729  F       61      -0.06325692       0.00871720      -0.00346951
In       9.06455585       2.82206686      16.65019864  F       62      -0.06977615      -0.02823980      -0.01915078
In       1.84108280       2.88623741      16.75741682  F       63       0.15750878      -0.14278708       0.03454316
In       5.19543306       3.35462016      16.65019954  F       64      -0.13915895      -0.19706248       0.17895339
In      11.14736129       0.15130547      16.75741597  F       65       0.00295912       0.06619219      -0.00432670
In       7.59119877       6.43910216      16.65019924  F       66      -0.00808139      -0.05261558      -0.04130703
In       8.86274257       9.57824538      16.75741545  F       67       0.04271013       0.08133035      -0.04037441
O        9.17763668       4.93473784      17.06350958  F       68       0.00728780       0.02323848       0.00784002
O        6.96851909       2.20035367      17.06350993  F       69       0.17137459      -0.08068578      -0.12554571
O        5.70503103       5.48069763      17.06350990  F       70      -0.13763922       0.26253235       0.04338530
O       -2.01746347       4.98124236      17.10476289  F       71       0.17528175       0.16213773       0.14427426
O       -1.96111486      11.87234229      17.10476307  F       72       0.06409845      -0.12564391       0.02381042
O        3.97857827       8.37799246      17.10476382  F       73       0.05306721       0.08670421       0.06335963
O        6.94850543       8.48097521      17.29260816  F       74      -0.07350394      -0.00695584       0.04910344
O       11.15421650       2.35771879      17.29260829  F       75      -0.02430260      -0.00596130       0.01949765
O        3.74846506       1.77709453      17.29260778  F       76       0.04286271       0.01668561       0.18855375
O       -0.04640858       1.97058198      17.55952389  F       77      -0.25043333      -0.11532467      -0.20153245
O       -5.55395094      11.67068958      17.55952349  F       78      -0.03018580      -0.13131961      -0.12449971
O        5.60035973      11.59030666      17.55952404  F       79      -0.06007510      -0.07407717      -0.03701584
O       -1.66090318       9.41582317      18.47372451  T       80      -0.00113056       0.00367813      -0.00523710
O        1.68633486       9.27467207      18.49042866  T       81      -0.01099254      -0.01052566       0.00639558
O        0.03904910       6.49193893      18.53415307  T       82       0.00261635       0.00518233       0.00646758
O        3.33958673       6.15119883      18.72754960  T       83       0.00242004      -0.00460981      -0.00948472
O       -3.69690165       6.64629744      18.69439022  T       84       0.00364530      -0.00273633       0.00514846
O        0.34137748      12.49131385      18.68266031  T       85      -0.00072646      -0.00843249      -0.00795893
O        9.20041871       9.11762690      18.96832461  T       86       0.00357691      -0.00003177      -0.00308734
O        2.03452385       3.37893259      18.88523284  T       87       0.00204575       0.00747055       0.00085933
O       10.58207709       0.07883818      18.97331137  T       88      -0.01225573       0.00487205      -0.00058571
O        8.85237900       2.86072914      19.25403157  T       89      -0.00332272      -0.00030686       0.00120807
O        5.36609312       3.53245238      19.16793880  T       90      -0.00349341      -0.01476824      -0.00429142
O        7.66182019       6.23428006      19.25486402  T       91      -0.01079041       0.00010008      -0.00128794
In      -1.82309692       5.54231041      19.48530778  T       92      -0.00582175      -0.00274486       0.00829831
In      -1.57472277      11.45631414      19.47199072  T       93      -0.00598401       0.00055081       0.00379098
In       6.93680205       1.95158366      19.21128368  T       94       0.00277826      -0.00242113      -0.00236227
In       3.48657597       8.29635987      19.37684402  T       95       0.00839564      -0.00118688       0.00176601
In       5.49272091       5.61520927      19.23321542  T       96       0.00452645       0.02161383       0.00931206
In       9.41036378       5.03859374      19.21986580  T       97       0.00356604       0.00794221       0.01156384
In      -0.07298784       8.44642113      19.67067267  T       98      -0.00804463      -0.01147200       0.00457318
In       3.61087665       2.04758317      19.57774766  T       99       0.01480851      -0.00602905       0.00068799
In      11.04221010       2.15115837      19.46424184  T      100       0.00051152      -0.00314969      -0.00504516
In       7.20111298       8.48400303      19.46372794  T      101       0.00170466      -0.00470660       0.00535756
In      -5.45834648      11.34253175      19.69568552  T      102      -0.00131674      -0.00975574       0.00120942
In      -3.33987202       8.60168650      19.60232935  T      103      -0.00725439       0.00045062      -0.00134049
In       0.19049009       2.19695244      19.68221317  T      104      -0.01472255      -0.00499628      -0.00071929
In       1.55569948       5.31659428      19.67866150  T      105       0.01500849       0.00065324       0.00522863
In       1.82238513      11.19003755      19.57973039  T      106       0.00457714      -0.00583819       0.00286333
In       5.26802870      11.68571130      19.69676771  T      107      -0.00226597      -0.00127596      -0.00091417
O        1.81085423       0.82779091      20.09435478  T      108      -0.00099483       0.00287247      -0.00051051
O        7.09201167      10.57605233      20.13431275  T      109      -0.01455986       0.00694054       0.00628877
O       12.88953446       1.16894168      20.15218788  T      110      -0.00283935       0.00416400      -0.00198370
O        5.38969925       7.56345892      20.09050000  T      111      -0.01475801      -0.01592764      -0.01310760
O       11.15068082       4.17723940      20.08124389  T      112       0.00659271      -0.00054836       0.00520015
O        5.32869894       0.87155577      20.03627754  T      113      -0.01523582      -0.00137898       0.00274229
O       -0.26124112       4.22355984      20.22721595  T      114      -0.00841828       0.00177798       0.00305539
O       -3.48985844      10.68478697      20.24429735  T      115       0.01230718       0.00013553      -0.00008619
O        3.72373647      10.27819432      20.21851076  T      116      -0.00768749      -0.00139251       0.00509930
O       -1.79489030       7.46084784      20.59681643  T      117       0.00766325      -0.00551165      -0.00463665
O        0.07139668      10.43397806      20.57519891  T      118      -0.00828072       0.00542797      -0.00280392
O        1.72005880       7.44353438      20.65277242  T      119      -0.01204495      -0.00968084       0.00280559
O        2.55833912       4.93610299      21.63301711  T        0       0.01111570      -0.01320297       0.00538287
O        3.50490455       2.86761753      21.67279833  T        0      -0.00733399       0.00910559      -0.00068238
C        2.69275428       3.80676729      23.70404220  T        0       0.00247904       0.00758509       0.00912370
C        2.94121585       3.86138421      22.21179205  T        0      -0.01404746      -0.00025468       0.01231933
H        3.10360819       4.70394177      24.18422945  T        0       0.01211965       0.00815150      -0.01047294
H        1.60694642       3.82406070      23.87627308  T        0       0.01105468       0.01026199       0.01362623
H        3.12373913       2.89929819      24.13736547  T        0       0.00497708       0.01549913       0.00164746
H        1.80193140       7.39160033      21.62203909  T        0       0.00597538      -0.00466524      -0.00184798
