128
Lattice="14.567458257780915 0.0 0.0 -7.283729128890462 12.615788919807672 0.0 0.0 0.0 33.04905420593702" Properties=species:S:1:pos:R:3:move_mask:L:1:spacegroup_kinds:I:1:forces:R:3 spacegroup="P 1" unit_cell=conventional occupancy="_JSON {\"0\": {\"O\": 1.0}, \"1\": {\"O\": 1.0}, \"2\": {\"O\": 1.0}, \"3\": {\"O\": 1.0}, \"4\": {\"O\": 1.0}, \"5\": {\"O\": 1.0}, \"6\": {\"O\": 1.0}, \"7\": {\"O\": 1.0}, \"8\": {\"O\": 1.0}, \"9\": {\"O\": 1.0}, \"10\": {\"O\": 1.0}, \"11\": {\"O\": 1.0}, \"12\": {\"In\": 1.0}, \"13\": {\"In\": 1.0}, \"14\": {\"In\": 1.0}, \"15\": {\"In\": 1.0}, \"16\": {\"In\": 1.0}, \"17\": {\"In\": 1.0}, \"18\": {\"In\": 1.0}, \"19\": {\"In\": 1.0}, \"20\": {\"In\": 1.0}, \"21\": {\"In\": 1.0}, \"22\": {\"In\": 1.0}, \"23\": {\"In\": 1.0}, \"24\": {\"In\": 1.0}, \"25\": {\"In\": 1.0}, \"26\": {\"In\": 1.0}, \"27\": {\"In\": 1.0}, \"28\": {\"O\": 1.0}, \"29\": {\"O\": 1.0}, \"30\": {\"O\": 1.0}, \"31\": {\"O\": 1.0}, \"32\": {\"O\": 1.0}, \"33\": {\"O\": 1.0}, \"34\": {\"O\": 1.0}, \"35\": {\"O\": 1.0}, \"36\": {\"O\": 1.0}, \"37\": {\"O\": 1.0}, \"38\": {\"O\": 1.0}, \"39\": {\"O\": 1.0}, \"40\": {\"O\": 1.0}, \"41\": {\"O\": 1.0}, \"42\": {\"O\": 1.0}, \"43\": {\"O\": 1.0}, \"44\": {\"O\": 1.0}, \"45\": {\"O\": 1.0}, \"46\": {\"O\": 1.0}, \"47\": {\"O\": 1.0}, \"48\": {\"O\": 1.0}, \"49\": {\"O\": 1.0}, \"50\": {\"O\": 1.0}, \"51\": {\"O\": 1.0}, \"52\": {\"In\": 1.0}, \"53\": {\"In\": 1.0}, \"54\": {\"In\": 1.0}, \"55\": {\"In\": 1.0}, \"56\": {\"In\": 1.0}, \"57\": {\"In\": 1.0}, \"58\": {\"In\": 1.0}, \"59\": {\"In\": 1.0}, \"60\": {\"In\": 1.0}, \"61\": {\"In\": 1.0}, \"62\": {\"In\": 1.0}, \"63\": {\"In\": 1.0}, \"64\": {\"In\": 1.0}, \"65\": {\"In\": 1.0}, \"66\": {\"In\": 1.0}, \"67\": {\"In\": 1.0}, \"68\": {\"O\": 1.0}, \"69\": {\"O\": 1.0}, \"70\": {\"O\": 1.0}, \"71\": {\"O\": 1.0}, \"72\": {\"O\": 1.0}, \"73\": {\"O\": 1.0}, \"74\": {\"O\": 1.0}, \"75\": {\"O\": 1.0}, \"76\": {\"O\": 1.0}, \"77\": {\"O\": 1.0}, \"78\": {\"O\": 1.0}, \"79\": {\"O\": 1.0}, \"80\": {\"O\": 1.0}, \"81\": {\"O\": 1.0}, \"82\": {\"O\": 1.0}, \"83\": {\"O\": 1.0}, \"84\": {\"O\": 1.0}, \"85\": {\"O\": 1.0}, \"86\": {\"O\": 1.0}, \"87\": {\"O\": 1.0}, \"88\": {\"O\": 1.0}, \"89\": {\"O\": 1.0}, \"90\": {\"O\": 1.0}, \"91\": {\"O\": 1.0}, \"92\": {\"In\": 1.0}, \"93\": {\"In\": 1.0}, \"94\": {\"In\": 1.0}, \"95\": {\"In\": 1.0}, \"96\": {\"In\": 1.0}, \"97\": {\"In\": 1.0}, \"98\": {\"In\": 1.0}, \"99\": {\"In\": 1.0}, \"100\": {\"In\": 1.0}, \"101\": {\"In\": 1.0}, \"102\": {\"In\": 1.0}, \"103\": {\"In\": 1.0}, \"104\": {\"In\": 1.0}, \"105\": {\"In\": 1.0}, \"106\": {\"In\": 1.0}, \"107\": {\"In\": 1.0}, \"108\": {\"O\": 1.0}, \"109\": {\"O\": 1.0}, \"110\": {\"O\": 1.0}, \"111\": {\"O\": 1.0}, \"112\": {\"O\": 1.0}, \"113\": {\"O\": 1.0}, \"114\": {\"O\": 1.0}, \"115\": {\"O\": 1.0}, \"116\": {\"O\": 1.0}, \"117\": {\"O\": 1.0}, \"118\": {\"O\": 1.0}, \"119\": {\"O\": 1.0}}" energy=-706.6209716796875 free_energy=-706.6209716796875 stress="0.007288428954780102 0.00031306620803661644 2.4652759748278186e-05 0.00031306620803661644 0.007657908834517002 2.2345169782056473e-05 2.4652759748278186e-05 2.2345169782056473e-05 -0.0001133175755967386" pbc="T T T"
O        5.56112551       5.29730098      12.44442493  F        0      -0.01810893      -0.02119300       0.00358272
O        7.19929797       2.16742567      12.44442488  F        1      -0.01538489      -0.01909384       0.01087534
O        9.09076378       5.15106294      12.44442506  F        2      -0.00435388      -0.02025951      -0.00719488
O        3.56236441       2.32744963      12.81467041  F        3       0.01050627      -0.00355171       0.00397718
O       10.77064547       1.92137361      12.81467059  F        4      -0.00269772      -0.00925592      -0.00588995
O        7.51817736       8.36696557      12.81467060  F        5      -0.01741112       0.01401442      -0.02913594
O       -3.86713652       8.43746206      12.95843886  F        6       0.03869148       0.01988776      -0.01019174
O        1.91024068       5.04801920      12.95843918  F        7       0.00542417       0.01024113       0.00368589
O        1.95689587      11.74609578      12.95843921  F        8      -0.03025330      -0.00022322       0.02610028
O       -5.62751792      11.43742505      12.90107995  F        9       0.03277417       0.03823651       0.00051713
O        0.19238766       2.02350350      12.90107932  F       10      -0.00549998      -0.00380305       0.00387180
O        5.43512990      11.77064967      12.90107909  F       11      -0.00426102      -0.00561050      -0.00392848
In       2.02827288       0.93415595      13.34696164  F       12      -0.01471915      -0.00231013      -0.01871106
In       5.45297263       1.43044201      13.46548669  F       13      -0.00399417       0.00744569      -0.07484080
In       5.79604177       7.17815473      13.46548635  F       14       0.02461888       0.00392684       0.01345395
In       7.07859496      10.39217548      13.34696140  F       15       0.00689699      -0.02775476       0.06661426
In      10.60217256       4.00719198      13.46548647  F       16       0.01457181       0.04968329       0.00178945
In      12.74431985       1.28945811      13.34696112  F       17      -0.00890446       0.01269067       0.01556610
In      -3.76992867      10.45841758      13.58493911  F       18      -0.02638025      -0.05422808       0.03929560
In       0.11143913       4.12172609      13.58493797  F       19      -0.01583855       0.01013607       0.03011429
In       7.28372934       4.20526284      13.28077194  F       20       0.03729416       0.05940597      -0.00988885
In       3.65848992      10.65143468      13.58493907  F       21       0.02764591      -0.01951601       0.00948386
In      -2.12514371       7.57248039      13.82744761  F       22      -0.05188687      -0.02524289       0.07249843
In       1.78834112       6.98912009      13.82744861  F       23      -0.00632928      -0.03081207       0.00067464
In       3.89762555       4.37439996      13.55369945  F       24      -0.00229757       0.03289795      -0.03257503
In       0.33680320      10.66997741      13.82744770  F       25       0.02536114      -0.02059966      -0.07294577
In       8.83030441       1.18824328      13.55369950  F       26       0.02207755       0.04772552      -0.06614996
In       9.12325787       7.05314622      13.55369981  F       27       0.00166969       0.00296750       0.10024442
O        1.94314284       9.09920259      13.79983277  F       28      -0.01858136       0.03676456       0.00344896
O       -0.37515974       6.38337672      13.79983300  F       29       0.04092047      -0.01473892      -0.03649938
O       -1.56798334       9.74899853      13.79983313  F       30       0.01539487       0.03571981      -0.00121975
O       -1.90665604       3.49451490      14.07374983  F       31       0.00400129      -0.00942260      -0.03303635
O       -3.30406258      12.51974383      14.07375025  F       32       0.03465372       0.04257733       0.06252625
O        5.21071859       9.21731872      14.07374980  F       33      -0.03484154       0.00755975      -0.04378389
O        6.95268262       0.11029125      14.35625235  F       34      -0.02608675       0.01064746       0.09527738
O        3.90290295       6.53944318      14.35625252  F       35      -0.00626747      -0.01807305      -0.00061460
O       10.99560128       5.96605484      14.35625280  F       36       0.02263418      -0.01656646      -0.07936610
O        5.60077915       3.29585311      14.56420047  F       37      -0.01430665      -0.03970014       0.08962840
O        8.91277589       3.20249084      14.56420075  F       38      -0.04235326      -0.08259548      -0.00282764
O        7.33763173       6.11744518      14.56420087  F       39      -0.02696009      -0.04919133      -0.07657194
O        1.68336921       1.02548187      15.48953070  F       40       0.09466190       0.06552659       0.04082365
O       12.83768043       0.94510034      15.48953027  F       41      -0.01148871       0.02085279      -0.00112121
O        7.33013789      10.64520717      15.48953039  F       42      -0.00493911       0.10523638      -0.06191199
O       -3.87048772      10.25806959      15.75644575  F       43       0.10744827       0.11624798      -0.05259275
O        0.33522381       4.13481358      15.75644581  F       44       0.04576099      -0.02915497      -0.05510343
O        3.53526358      10.83869431      15.75644572  F       45      -0.03579971       0.00455278      -0.00817993
O        9.24484356       0.74344663      15.94429150  F       46      -0.17511211      -0.03843015       0.12978299
O        3.30515102       4.23779662      15.94429168  F       47       0.04809409      -0.13859308       0.02196839
O        9.30119327       7.63454631      15.94429132  F       48       0.03574924      -0.02331725      -0.13149050
O       -1.89390768       7.68105065      15.98554452  F       49       0.10243025       0.03059548      -0.11843818
O        1.57869822       7.13509120      15.98554413  F       50       0.02630973       0.04729838      -0.00325120
O        0.31520971      10.41543579      15.98554439  F       51      -0.06565173       0.14053345       0.11608640
In      -1.57901381       3.03754313      16.29163881  F       52      -0.03040218       0.07992693      -0.00037116
In      -3.86363272      12.46448245      16.29163869  F       53      -0.25437680      -0.22331014      -0.16020700
In      -0.30746998       6.17668715      16.39885574  F       54      -0.08331042      -0.00847998      -0.03417914
In      -1.78082649       9.79372205      16.39885556  F       55      -0.14563091      -0.35647714      -0.10522318
In       2.08829635       9.26116873      16.39885555  F       56       0.07362138      -0.04493625      -0.01280154
In       5.44264624       9.72955081      16.29163837  F       57       0.22990994      -0.14951324       0.16642193
In      14.56745775       0.00000023      16.52452729  F       58      -0.03136665      -0.09556595       0.01521728
In       7.28372884       0.00000046      16.52452727  F       59       0.07415099      -0.01833468      -0.11186194
In       3.64186448       6.30789445      16.52452688  F       60       0.00090531       0.02480128       0.01604812
In      -3.64186467       6.30789479      16.52452729  F       61      -0.04139366       0.00576631      -0.16442476
In       9.06455585       2.82206686      16.65019864  F       62       0.25048503       0.39657602      -0.04564828
In       1.84108280       2.88623741      16.75741682  F       63      -0.31073144       0.14405288      -0.35446212
In       5.19543306       3.35462016      16.65019954  F       64       0.00842542       0.28306878      -0.41131723
In      11.14736129       0.15130547      16.75741597  F       65       0.08903711      -0.03504534       0.02490100
In       7.59119877       6.43910216      16.65019924  F       66       0.09299895       0.15857382       0.23878185
In       8.86274257       9.57824538      16.75741545  F       67      -0.12652391      -0.21831176       0.13378315
O        9.17763668       4.93473784      17.06350958  F       68       0.09139843      -0.09079018       0.17403628
O        6.96851909       2.20035367      17.06350993  F       69      -0.08486499       0.00987752       0.12837157
O        5.70503103       5.48069763      17.06350990  F       70      -0.21495241      -0.36974880      -0.02820697
O       -2.01746347       4.98124236      17.10476289  F       71       0.17897838      -0.14493543      -0.03838526
O       -1.96111486      11.87234229      17.10476307  F       72       0.04884900       0.03732982       0.25255287
O        3.97857827       8.37799246      17.10476382  F       73      -0.14778078      -0.02529415       0.02260128
O        6.94850543       8.48097521      17.29260816  F       74       0.06357056      -0.00401725       0.24155563
O       11.15421650       2.35771879      17.29260829  F       75      -0.03379719      -0.06536084      -0.02767194
O        3.74846506       1.77709453      17.29260778  F       76       0.19952869      -0.00756463       0.35226673
O       -0.04640858       1.97058198      17.55952389  F       77       0.01322840      -0.01680621       0.00654665
O       -5.55395094      11.67068958      17.55952349  F       78       0.13229397       0.30580124      -0.15636465
O        5.60035973      11.59030666      17.55952404  F       79      -0.14111608       0.13374278      -0.10204169
O       -1.65223330       9.34663862      18.47762639  T       80      -0.01003894       0.00743585       0.00721139
O        1.69004709       9.35183258      18.48698799  T       81      -0.00251858       0.01197952       0.00511014
O       -0.03373702       6.49233878      18.47663242  T       82       0.00202417       0.01319843       0.00639302
O        3.39545361       6.03803252      18.68984303  T       83      -0.00922811       0.00274956      -0.00267938
O       -3.64093978       6.64804031      18.63927664  T       84       0.00469008      -0.00555837      -0.01041462
O        0.21477072      12.55386815      18.76205108  T       85       0.00879434       0.00620562      -0.01430534
O        9.23971782       9.17211792      18.91203472  T       86      -0.01609813       0.00371808       0.00172833
O        2.02464952       3.45213827      18.92864913  T       87      -0.00089216       0.00515844      -0.00414339
O       10.53629541       0.11070343      18.96579061  T       88       0.00004870       0.00747398      -0.00089559
O        8.87373061       2.91150721      19.27411998  T       89       0.00778139       0.00619638       0.00730485
O        5.33422851       3.44388488      19.31493416  T       90       0.00243418      -0.00119584       0.00310272
O        7.62680080       6.18740428      19.15462565  T       91      -0.00164828       0.01032263      -0.01461053
In      -1.82435498       5.56914857      19.48798047  T       92       0.00065012       0.00190312      -0.00831333
In      -1.53689314      11.28016050      19.44789156  T       93      -0.00268057      -0.00368881       0.00276908
In       7.00685296       2.00500998      19.21459254  T       94      -0.01502869       0.00288526       0.00315070
In       3.42198084       8.26344761      19.47411304  T       95      -0.00475228       0.00094244      -0.00196515
In       5.50622736       5.64356766      19.20905839  T       96      -0.00162145      -0.00474167      -0.00404462
In       9.44921003       5.15801087      19.27452498  T       97      -0.00103951      -0.00625765       0.00042863
In       0.02020589       8.39337548      19.75316606  T       98      -0.00523009      -0.00346573      -0.01048584
In       3.54539410       2.07095278      19.43572585  T       99       0.00294024       0.00254053       0.01073717
In      11.04526202       2.17676806      19.45720147  T      100       0.00760009       0.00284074       0.00516893
In       7.27218272       8.46662161      19.58691641  T      101      -0.00451920       0.00372803       0.00835061
In      -5.43887998      11.32003383      19.67931212  T      102      -0.00193344       0.00609364      -0.00277399
In      -3.39584459       8.51344138      19.71210516  T      103       0.01591824       0.00880370       0.00543019
In       0.17171837       2.23859708      19.69672652  T      104       0.00515136      -0.00292039       0.00742695
In       1.49167319       5.46661733      19.59816476  T      105       0.00880472       0.00290199      -0.00181833
In       1.85077024      11.19521299      19.61636875  T      106      -0.01637077       0.00241958       0.00194998
In       5.27867864      11.67843568      19.69499960  T      107       0.00141206      -0.00056186       0.00292443
O        1.88741177       0.89020625      20.13555941  T      108       0.00148273       0.00280305       0.00302678
O        7.11929382      10.65634603      20.06976914  T      109      -0.01018593       0.00213069      -0.00000036
O       12.89355370       1.18338351      20.13095190  T      110       0.00025432      -0.01306999       0.00508195
O        5.37524602       7.58932818      20.02136252  T      111      -0.01315326      -0.00480193       0.00935203
O       11.16074237       4.19024881      20.08097325  T      112       0.01320587       0.00783971      -0.00165302
O        5.27637023       0.85428516      20.26289395  T      113       0.00628854      -0.00188386      -0.00201416
O       -0.22013837       4.25817605      20.25941211  T      114       0.00146486       0.00599334       0.00808811
O       -3.45147724      10.70792692      20.27816579  T      115       0.00416335       0.01329198      -0.00985938
O        3.73658891      10.31098615      20.25284910  T      116      -0.00707275      -0.00813960      -0.00067550
O       -1.73025115       7.45856272      20.60614449  T      117      -0.01096085       0.01164086      -0.00832891
O        0.09887929      10.44873822      20.60608843  T      118       0.00238788       0.00877550       0.00767201
O        1.76443668       7.34675965      20.59032412  T      119      -0.00354150      -0.00623141      -0.00224757
O       -4.68711302       7.16426747      21.17628714  T        0      -0.00114340       0.00955838       0.01829839
O       -6.62015949       8.21034516      21.72085975  T        0       0.01700658      -0.01838863       0.00032747
C       -5.12143972       7.59422450      23.47393147  T        0      -0.00003123      -0.00813929       0.02351670
C       -5.51297654       7.66883997      22.01684016  T        0      -0.00883880      -0.00977745      -0.00153732
H       -5.28172426       6.57006976      23.83836677  T        0       0.00187735      -0.01723274      -0.00039969
H       -4.04877951       7.80711009      23.57330917  T        0      -0.01869816       0.00284225      -0.00088040
H       -5.72588951       8.28584644      24.06771400  T        0      -0.00106096      -0.01666066       0.00572795
H       -2.04085009      13.39572746      21.23770087  T        0       0.01588944       0.00318117      -0.00057638
