128
Lattice="14.567458257780915 0.0 0.0 -7.283729128890462 12.615788919807672 0.0 0.0 0.0 33.04905420593702" Properties=species:S:1:pos:R:3:move_mask:L:1:spacegroup_kinds:I:1:forces:R:3 spacegroup="P 1" unit_cell=conventional occupancy="_JSON {\"0\": {\"O\": 1.0}, \"1\": {\"O\": 1.0}, \"2\": {\"O\": 1.0}, \"3\": {\"O\": 1.0}, \"4\": {\"O\": 1.0}, \"5\": {\"O\": 1.0}, \"6\": {\"O\": 1.0}, \"7\": {\"O\": 1.0}, \"8\": {\"O\": 1.0}, \"9\": {\"O\": 1.0}, \"10\": {\"O\": 1.0}, \"11\": {\"O\": 1.0}, \"12\": {\"In\": 1.0}, \"13\": {\"In\": 1.0}, \"14\": {\"In\": 1.0}, \"15\": {\"In\": 1.0}, \"16\": {\"In\": 1.0}, \"17\": {\"In\": 1.0}, \"18\": {\"In\": 1.0}, \"19\": {\"In\": 1.0}, \"20\": {\"In\": 1.0}, \"21\": {\"In\": 1.0}, \"22\": {\"In\": 1.0}, \"23\": {\"In\": 1.0}, \"24\": {\"In\": 1.0}, \"25\": {\"In\": 1.0}, \"26\": {\"In\": 1.0}, \"27\": {\"In\": 1.0}, \"28\": {\"O\": 1.0}, \"29\": {\"O\": 1.0}, \"30\": {\"O\": 1.0}, \"31\": {\"O\": 1.0}, \"32\": {\"O\": 1.0}, \"33\": {\"O\": 1.0}, \"34\": {\"O\": 1.0}, \"35\": {\"O\": 1.0}, \"36\": {\"O\": 1.0}, \"37\": {\"O\": 1.0}, \"38\": {\"O\": 1.0}, \"39\": {\"O\": 1.0}, \"40\": {\"O\": 1.0}, \"41\": {\"O\": 1.0}, \"42\": {\"O\": 1.0}, \"43\": {\"O\": 1.0}, \"44\": {\"O\": 1.0}, \"45\": {\"O\": 1.0}, \"46\": {\"O\": 1.0}, \"47\": {\"O\": 1.0}, \"48\": {\"O\": 1.0}, \"49\": {\"O\": 1.0}, \"50\": {\"O\": 1.0}, \"51\": {\"O\": 1.0}, \"52\": {\"In\": 1.0}, \"53\": {\"In\": 1.0}, \"54\": {\"In\": 1.0}, \"55\": {\"In\": 1.0}, \"56\": {\"In\": 1.0}, \"57\": {\"In\": 1.0}, \"58\": {\"In\": 1.0}, \"59\": {\"In\": 1.0}, \"60\": {\"In\": 1.0}, \"61\": {\"In\": 1.0}, \"62\": {\"In\": 1.0}, \"63\": {\"In\": 1.0}, \"64\": {\"In\": 1.0}, \"65\": {\"In\": 1.0}, \"66\": {\"In\": 1.0}, \"67\": {\"In\": 1.0}, \"68\": {\"O\": 1.0}, \"69\": {\"O\": 1.0}, \"70\": {\"O\": 1.0}, \"71\": {\"O\": 1.0}, \"72\": {\"O\": 1.0}, \"73\": {\"O\": 1.0}, \"74\": {\"O\": 1.0}, \"75\": {\"O\": 1.0}, \"76\": {\"O\": 1.0}, \"77\": {\"O\": 1.0}, \"78\": {\"O\": 1.0}, \"79\": {\"O\": 1.0}, \"80\": {\"O\": 1.0}, \"81\": {\"O\": 1.0}, \"82\": {\"O\": 1.0}, \"83\": {\"O\": 1.0}, \"84\": {\"O\": 1.0}, \"85\": {\"O\": 1.0}, \"86\": {\"O\": 1.0}, \"87\": {\"O\": 1.0}, \"88\": {\"O\": 1.0}, \"89\": {\"O\": 1.0}, \"90\": {\"O\": 1.0}, \"91\": {\"O\": 1.0}, \"92\": {\"In\": 1.0}, \"93\": {\"In\": 1.0}, \"94\": {\"In\": 1.0}, \"95\": {\"In\": 1.0}, \"96\": {\"In\": 1.0}, \"97\": {\"In\": 1.0}, \"98\": {\"In\": 1.0}, \"99\": {\"In\": 1.0}, \"100\": {\"In\": 1.0}, \"101\": {\"In\": 1.0}, \"102\": {\"In\": 1.0}, \"103\": {\"In\": 1.0}, \"104\": {\"In\": 1.0}, \"105\": {\"In\": 1.0}, \"106\": {\"In\": 1.0}, \"107\": {\"In\": 1.0}, \"108\": {\"O\": 1.0}, \"109\": {\"O\": 1.0}, \"110\": {\"O\": 1.0}, \"111\": {\"O\": 1.0}, \"112\": {\"O\": 1.0}, \"113\": {\"O\": 1.0}, \"114\": {\"O\": 1.0}, \"115\": {\"O\": 1.0}, \"116\": {\"O\": 1.0}, \"117\": {\"O\": 1.0}, \"118\": {\"O\": 1.0}, \"119\": {\"O\": 1.0}}" energy=-706.9180908203125 free_energy=-706.9180908203125 stress="0.00718395970761776 -0.00017875707999337465 8.130928472382948e-05 -0.00017875707999337465 0.007570995483547449 2.869660602300428e-05 8.130928472382948e-05 2.869660602300428e-05 -5.005084676668048e-05" pbc="T T T"
O        5.56112551       5.29730098      12.44442493  F        0      -0.00635521       0.02425361      -0.00380337
O        7.19929797       2.16742567      12.44442488  F        1       0.00073918      -0.00246504      -0.01099229
O        9.09076378       5.15106294      12.44442506  F        2       0.00663477       0.01593253      -0.00217271
O        3.56236441       2.32744963      12.81467041  F        3      -0.01982102      -0.01596638      -0.01685661
O       10.77064547       1.92137361      12.81467059  F        4       0.03033769      -0.00253585      -0.01844442
O        7.51817736       8.36696557      12.81467060  F        5      -0.01269171       0.01823354       0.00154489
O       -3.86713652       8.43746206      12.95843886  F        6       0.01694420      -0.00092988       0.00697505
O        1.91024068       5.04801920      12.95843918  F        7      -0.01453954       0.03292194       0.00911951
O        1.95689587      11.74609578      12.95843921  F        8       0.00757845      -0.04394506       0.00360501
O       -5.62751792      11.43742505      12.90107995  F        9      -0.00324880       0.00253113       0.00513482
O        0.19238766       2.02350350      12.90107932  F       10      -0.02441220       0.00472302      -0.00666136
O        5.43512990      11.77064967      12.90107909  F       11       0.00556541      -0.03323019       0.01126689
In       2.02827288       0.93415595      13.34696164  F       12       0.02413418       0.01504195       0.02855629
In       5.45297263       1.43044201      13.46548669  F       13       0.03069191       0.00545407       0.01578216
In       5.79604177       7.17815473      13.46548635  F       14       0.01275531      -0.04666743      -0.03749758
In       7.07859496      10.39217548      13.34696140  F       15       0.01704693      -0.00077875      -0.02670652
In      10.60217256       4.00719198      13.46548647  F       16      -0.02989665      -0.00543500       0.00554106
In      12.74431985       1.28945811      13.34696112  F       17      -0.01731085       0.01767445       0.01194441
In      -3.76992867      10.45841758      13.58493911  F       18       0.00869464       0.01762845       0.01388289
In       0.11143913       4.12172609      13.58493797  F       19       0.00113243      -0.00973411       0.01318736
In       7.28372934       4.20526284      13.28077194  F       20      -0.00811066      -0.04022364       0.02466785
In       3.65848992      10.65143468      13.58493907  F       21      -0.02191891       0.03077132      -0.02858418
In      -2.12514371       7.57248039      13.82744761  F       22      -0.03764662       0.00746990      -0.01337844
In       1.78834112       6.98912009      13.82744861  F       23       0.00710931      -0.04849216      -0.06279399
In       3.89762555       4.37439996      13.55369945  F       24       0.03181601      -0.04216986       0.00971179
In       0.33680320      10.66997741      13.82744770  F       25      -0.00186971       0.07222243       0.00707549
In       8.83030441       1.18824328      13.55369950  F       26      -0.02291494       0.01904231       0.04793274
In       9.12325787       7.05314622      13.55369981  F       27      -0.00274623      -0.02927907      -0.01425055
O        1.94314284       9.09920259      13.79983277  F       28       0.01579066      -0.00315350       0.02698904
O       -0.37515974       6.38337672      13.79983300  F       29       0.03178719       0.00551826       0.01164961
O       -1.56798334       9.74899853      13.79983313  F       30      -0.01386487      -0.02282222      -0.01059604
O       -1.90665604       3.49451490      14.07374983  F       31       0.00912248       0.00506812      -0.01613845
O       -3.30406258      12.51974383      14.07375025  F       32      -0.01008558      -0.02276513      -0.03373353
O        5.21071859       9.21731872      14.07374980  F       33      -0.00030449      -0.01207015       0.07564967
O        6.95268262       0.11029125      14.35625235  F       34       0.00251660      -0.03931570      -0.05264137
O        3.90290295       6.53944318      14.35625252  F       35      -0.00051255       0.05183434       0.05283627
O       10.99560128       5.96605484      14.35625280  F       36       0.00684363       0.01515025      -0.00512242
O        5.60077915       3.29585311      14.56420047  F       37      -0.02935271       0.04820497      -0.11467671
O        8.91277589       3.20249084      14.56420075  F       38       0.01957431       0.00644453      -0.07819682
O        7.33763173       6.11744518      14.56420087  F       39       0.00858158       0.04650269      -0.00270462
O        1.68336921       1.02548187      15.48953070  F       40      -0.07491168      -0.03328220      -0.05294907
O       12.83768043       0.94510034      15.48953027  F       41       0.02389634      -0.04534975       0.00134207
O        7.33013789      10.64520717      15.48953039  F       42      -0.02691200      -0.06070755       0.06167649
O       -3.87048772      10.25806959      15.75644575  F       43      -0.00540613      -0.00974858      -0.01521512
O        0.33522381       4.13481358      15.75644581  F       44      -0.00881433       0.02552108      -0.00246068
O        3.53526358      10.83869431      15.75644572  F       45       0.03181745      -0.08612826       0.04471252
O        9.24484356       0.74344663      15.94429150  F       46       0.12641725      -0.12285465      -0.08520025
O        3.30515102       4.23779662      15.94429168  F       47      -0.10281038       0.17921826      -0.00016382
O        9.30119327       7.63454631      15.94429132  F       48      -0.06814148       0.05650723       0.02781327
O       -1.89390768       7.68105065      15.98554452  F       49       0.02090032      -0.01117536       0.02703870
O        1.57869822       7.13509120      15.98554413  F       50       0.12222804       0.02261103       0.10281100
O        0.31520971      10.41543579      15.98554439  F       51       0.00749435      -0.02072340      -0.02213658
In      -1.57901381       3.03754313      16.29163881  F       52      -0.06453657      -0.03171678       0.01207869
In      -3.86363272      12.46448245      16.29163869  F       53       0.06325885       0.15958086       0.02850552
In      -0.30746998       6.17668715      16.39885574  F       54      -0.05277295      -0.03472420       0.00775951
In      -1.78082649       9.79372205      16.39885556  F       55       0.00918890       0.04517079       0.03432797
In       2.08829635       9.26116873      16.39885555  F       56      -0.15967320       0.14441326      -0.30382100
In       5.44264624       9.72955081      16.29163837  F       57       0.00601779       0.16514336      -0.14031421
In      14.56745775       0.00000023      16.52452729  F       58       0.05466486       0.07819962      -0.04774625
In       7.28372884       0.00000046      16.52452727  F       59      -0.01854169       0.34823257       0.23908138
In       3.64186448       6.30789445      16.52452688  F       60       0.20192394      -0.26619938       0.06838347
In      -3.64186467       6.30789479      16.52452729  F       61      -0.06441752      -0.04358567       0.06572085
In       9.06455585       2.82206686      16.65019864  F       62      -0.22909006      -0.13900636       0.22789840
In       1.84108280       2.88623741      16.75741682  F       63       0.10357498      -0.02847558      -0.02377148
In       5.19543306       3.35462016      16.65019954  F       64       0.10215896      -0.22305115       0.20596002
In      11.14736129       0.15130547      16.75741597  F       65      -0.09962235       0.11061839      -0.05787608
In       7.59119877       6.43910216      16.65019924  F       66      -0.02200107      -0.27279234      -0.12325409
In       8.86274257       9.57824538      16.75741545  F       67       0.22542691       0.14956956      -0.33521742
O        9.17763668       4.93473784      17.06350958  F       68      -0.04158941       0.34669447      -0.05968405
O        6.96851909       2.20035367      17.06350993  F       69       0.18511200      -0.19582839      -0.00126690
O        5.70503103       5.48069763      17.06350990  F       70       0.09069198       0.36296728       0.20083924
O       -2.01746347       4.98124236      17.10476289  F       71       0.01949459       0.03594187       0.06006497
O       -1.96111486      11.87234229      17.10476307  F       72       0.00789471      -0.09784794       0.03196727
O        3.97857827       8.37799246      17.10476382  F       73      -0.04131433       0.01598772       0.23027284
O        6.94850543       8.48097521      17.29260816  F       74      -0.08674163       0.03658281       0.24638256
O       11.15421650       2.35771879      17.29260829  F       75       0.32865760      -0.07944930      -0.14989597
O        3.74846506       1.77709453      17.29260778  F       76      -0.43439639      -0.42143464      -0.38458526
O       -0.04640858       1.97058198      17.55952389  F       77       0.01441622       0.01041674       0.01047273
O       -5.55395094      11.67068958      17.55952349  F       78      -0.04652424      -0.02426729       0.02736224
O        5.60035973      11.59030666      17.55952404  F       79       0.01822026      -0.09572598      -0.01513007
O       -1.61046820       9.41981657      18.48795216  T       80       0.00195215      -0.00319201      -0.00023460
O        1.64174167       9.34793174      18.46523383  T       81      -0.00547119      -0.00010429       0.00636601
O       -0.03544400       6.49663395      18.48594664  T       82      -0.00882539      -0.00299523       0.01430458
O        3.46345312       6.13617210      18.75691414  T       83       0.01385346       0.01367782       0.01364912
O       -3.71792726       6.64218478      18.70632756  T       84      -0.00553107      -0.00051230       0.00446125
O        0.33331795      12.53151008      18.71079812  T       85      -0.01337171      -0.00345420       0.00602924
O        9.26773419       9.13797288      18.93751131  T       86       0.00736684       0.00640714      -0.00594231
O        2.06754613       3.42293517      18.97572272  T       87      -0.00416854      -0.01109457       0.00588199
O       10.60447416       0.07118199      18.98952831  T       88      -0.00522012       0.00437501      -0.00091961
O        8.92440244       2.84949402      19.07209472  T       89      -0.01131886      -0.01141998      -0.00784737
O        5.24365903       3.42794782      18.96167904  T       90       0.00635138      -0.01650116       0.01794040
O        7.62872097       6.27810110      19.22402911  T       91       0.00842953      -0.00751652       0.00233513
In      -1.84011838       5.55376796      19.49553212  T       92      -0.01300960      -0.00273405       0.00801968
In      -1.52985234      11.45749856      19.48977443  T       93      -0.00491997       0.00375699       0.00850444
In       6.95555534       2.02110002      19.28387050  T       94      -0.00026616       0.00415072       0.00053906
In       3.28959063       8.26601334      19.43829908  T       95       0.00692818      -0.01285043      -0.00740735
In       5.52123818       5.48736787      19.28614133  T       96      -0.00930066       0.01960495       0.00728289
In       9.40416855       5.01928787      19.21644677  T       97      -0.00866772       0.00974086      -0.00993168
In      -0.01848235       8.41806163      19.77324049  T       98       0.00004025      -0.00361935      -0.00643180
In       3.62870752       1.94884196      19.43096953  T       99      -0.00540254      -0.00309703       0.00155568
In      11.05316408       2.15575359      19.44787645  T      100       0.00404847      -0.00155422      -0.00398454
In       7.30856281       8.49251315      19.42544568  T      101      -0.00822441      -0.01121800      -0.00152254
In      -5.42591536      11.34692121      19.69759103  T      102      -0.00392843       0.00185101      -0.00357533
In      -3.28054622       8.60900162      19.59364076  T      103      -0.01896572      -0.00813616      -0.01073311
In       0.20198633       2.22943322      19.69831029  T      104      -0.01205291       0.01391727       0.00380620
In       1.49046524       5.43179670      19.59981778  T      105       0.00809363       0.00075698      -0.00162309
In       1.81632566      11.21449533      19.59262927  T      106      -0.00010435      -0.00386685      -0.00443956
In       5.26076932      11.66804506      19.68985785  T      107      -0.00663090      -0.00035514       0.00191540
O        1.84582321       0.85575688      20.14016457  T      108       0.00721975       0.00057927      -0.01082730
O        7.11608251      10.54150490      20.12768996  T      109       0.00631588       0.00591804       0.00186983
O       12.91603369       1.15909489      20.13913229  T      110      -0.01246544      -0.00084031      -0.00013739
O        5.40262019       7.64590037      20.19630629  T      111      -0.00108972       0.00350650      -0.00316668
O       11.14768411       4.17525323      20.10878129  T      112       0.00462256       0.00520164       0.00675398
O        5.32727529       0.87471288      20.09341765  T      113      -0.01100864       0.00537756       0.01462656
O       -0.23830725       4.25182498      20.24958547  T      114      -0.00073448      -0.00455102       0.00302196
O       -3.46740958      10.69494063      20.24217670  T      115      -0.00496656       0.01115511       0.01329309
O        3.72648558      10.24496612      20.21157330  T      116      -0.00282559       0.00857732      -0.00107419
O       -1.79417232       7.45248487      20.61390858  T      117       0.00031066      -0.00676600       0.01109672
O        0.09256332      10.44540029      20.61545916  T      118       0.00157408       0.00831980      -0.00296044
O        1.71537244       7.32393829      20.60940943  T      119      -0.01322818       0.00070468      -0.00111163
O        7.12051391       3.36766929      21.24903702  T        0      -0.00906461       0.00318998      -0.00483814
O        5.61433522       5.06075933      21.47900987  T        0       0.00054798       0.00185758      -0.00664295
C        6.25747094       3.82458550      23.41065527  T        0      -0.00383879       0.00268566      -0.00582995
C        6.34002209       4.09962456      21.92850092  T        0       0.01029865      -0.00336276      -0.01184821
H        5.63965624       2.92913524      23.57238495  T        0       0.00283880      -0.00598339      -0.00530021
H        7.25769811       3.60081029      23.80060476  T        0      -0.00663501      -0.00217020       0.00365470
H        5.80612023       4.66945579      23.94086091  T        0      -0.01175434      -0.00393371      -0.00436208
H        5.40271829       7.50165034      21.16540468  T        0      -0.00083289       0.00656972      -0.00309908
