128
Lattice="14.567458257780915 0.0 0.0 -7.283729128890462 12.615788919807672 0.0 0.0 0.0 33.04905420593702" Properties=species:S:1:pos:R:3:move_mask:L:1:spacegroup_kinds:I:1:forces:R:3 spacegroup="P 1" unit_cell=conventional occupancy="_JSON {\"0\": {\"O\": 1.0}, \"1\": {\"O\": 1.0}, \"2\": {\"O\": 1.0}, \"3\": {\"O\": 1.0}, \"4\": {\"O\": 1.0}, \"5\": {\"O\": 1.0}, \"6\": {\"O\": 1.0}, \"7\": {\"O\": 1.0}, \"8\": {\"O\": 1.0}, \"9\": {\"O\": 1.0}, \"10\": {\"O\": 1.0}, \"11\": {\"O\": 1.0}, \"12\": {\"In\": 1.0}, \"13\": {\"In\": 1.0}, \"14\": {\"In\": 1.0}, \"15\": {\"In\": 1.0}, \"16\": {\"In\": 1.0}, \"17\": {\"In\": 1.0}, \"18\": {\"In\": 1.0}, \"19\": {\"In\": 1.0}, \"20\": {\"In\": 1.0}, \"21\": {\"In\": 1.0}, \"22\": {\"In\": 1.0}, \"23\": {\"In\": 1.0}, \"24\": {\"In\": 1.0}, \"25\": {\"In\": 1.0}, \"26\": {\"In\": 1.0}, \"27\": {\"In\": 1.0}, \"28\": {\"O\": 1.0}, \"29\": {\"O\": 1.0}, \"30\": {\"O\": 1.0}, \"31\": {\"O\": 1.0}, \"32\": {\"O\": 1.0}, \"33\": {\"O\": 1.0}, \"34\": {\"O\": 1.0}, \"35\": {\"O\": 1.0}, \"36\": {\"O\": 1.0}, \"37\": {\"O\": 1.0}, \"38\": {\"O\": 1.0}, \"39\": {\"O\": 1.0}, \"40\": {\"O\": 1.0}, \"41\": {\"O\": 1.0}, \"42\": {\"O\": 1.0}, \"43\": {\"O\": 1.0}, \"44\": {\"O\": 1.0}, \"45\": {\"O\": 1.0}, \"46\": {\"O\": 1.0}, \"47\": {\"O\": 1.0}, \"48\": {\"O\": 1.0}, \"49\": {\"O\": 1.0}, \"50\": {\"O\": 1.0}, \"51\": {\"O\": 1.0}, \"52\": {\"In\": 1.0}, \"53\": {\"In\": 1.0}, \"54\": {\"In\": 1.0}, \"55\": {\"In\": 1.0}, \"56\": {\"In\": 1.0}, \"57\": {\"In\": 1.0}, \"58\": {\"In\": 1.0}, \"59\": {\"In\": 1.0}, \"60\": {\"In\": 1.0}, \"61\": {\"In\": 1.0}, \"62\": {\"In\": 1.0}, \"63\": {\"In\": 1.0}, \"64\": {\"In\": 1.0}, \"65\": {\"In\": 1.0}, \"66\": {\"In\": 1.0}, \"67\": {\"In\": 1.0}, \"68\": {\"O\": 1.0}, \"69\": {\"O\": 1.0}, \"70\": {\"O\": 1.0}, \"71\": {\"O\": 1.0}, \"72\": {\"O\": 1.0}, \"73\": {\"O\": 1.0}, \"74\": {\"O\": 1.0}, \"75\": {\"O\": 1.0}, \"76\": {\"O\": 1.0}, \"77\": {\"O\": 1.0}, \"78\": {\"O\": 1.0}, \"79\": {\"O\": 1.0}, \"80\": {\"O\": 1.0}, \"81\": {\"O\": 1.0}, \"82\": {\"O\": 1.0}, \"83\": {\"O\": 1.0}, \"84\": {\"O\": 1.0}, \"85\": {\"O\": 1.0}, \"86\": {\"O\": 1.0}, \"87\": {\"O\": 1.0}, \"88\": {\"O\": 1.0}, \"89\": {\"O\": 1.0}, \"90\": {\"O\": 1.0}, \"91\": {\"O\": 1.0}, \"92\": {\"In\": 1.0}, \"93\": {\"In\": 1.0}, \"94\": {\"In\": 1.0}, \"95\": {\"In\": 1.0}, \"96\": {\"In\": 1.0}, \"97\": {\"In\": 1.0}, \"98\": {\"In\": 1.0}, \"99\": {\"In\": 1.0}, \"100\": {\"In\": 1.0}, \"101\": {\"In\": 1.0}, \"102\": {\"In\": 1.0}, \"103\": {\"In\": 1.0}, \"104\": {\"In\": 1.0}, \"105\": {\"In\": 1.0}, \"106\": {\"In\": 1.0}, \"107\": {\"In\": 1.0}, \"108\": {\"O\": 1.0}, \"109\": {\"O\": 1.0}, \"110\": {\"O\": 1.0}, \"111\": {\"O\": 1.0}, \"112\": {\"O\": 1.0}, \"113\": {\"O\": 1.0}, \"114\": {\"O\": 1.0}, \"115\": {\"O\": 1.0}, \"116\": {\"O\": 1.0}, \"117\": {\"O\": 1.0}, \"118\": {\"O\": 1.0}, \"119\": {\"O\": 1.0}}" energy=-707.56689453125 free_energy=-707.56689453125 stress="0.0076142968609929085 -3.8737718568881974e-05 -0.00012003558367723599 -3.8737718568881974e-05 0.007765864487737417 3.356871093274094e-05 -0.00012003558367723599 3.356871093274094e-05 1.4170180293149315e-05" pbc="T T T"
O        5.56112551       5.29730098      12.44442493  F        0      -0.01155268       0.01608343      -0.00664628
O        7.19929797       2.16742567      12.44442488  F        1      -0.01461279      -0.01754981      -0.00731266
O        9.09076378       5.15106294      12.44442506  F        2       0.00736928       0.02185993      -0.00775731
O        3.56236441       2.32744963      12.81467041  F        3      -0.01213089      -0.02531908      -0.00953317
O       10.77064547       1.92137361      12.81467059  F        4       0.02374451       0.00051159      -0.03107065
O        7.51817736       8.36696557      12.81467060  F        5      -0.00099574       0.01281446      -0.01456219
O       -3.86713652       8.43746206      12.95843886  F        6       0.02920777       0.01870763       0.02067184
O        1.91024068       5.04801920      12.95843918  F        7      -0.00939918       0.02658172       0.01126724
O        1.95689587      11.74609578      12.95843921  F        8      -0.02454971      -0.04271792       0.00268686
O       -5.62751792      11.43742505      12.90107995  F        9       0.03051028       0.00900391       0.00831968
O        0.19238766       2.02350350      12.90107932  F       10       0.00164366       0.00249663      -0.00968057
O        5.43512990      11.77064967      12.90107909  F       11       0.01448876      -0.03845580      -0.01312917
In       2.02827288       0.93415595      13.34696164  F       12      -0.01204263       0.02520300       0.01180863
In       5.45297263       1.43044201      13.46548669  F       13       0.03828587       0.04977275      -0.00784822
In       5.79604177       7.17815473      13.46548635  F       14       0.00727770      -0.01142622      -0.00809506
In       7.07859496      10.39217548      13.34696140  F       15      -0.01394852      -0.00598096       0.01796165
In      10.60217256       4.00719198      13.46548647  F       16      -0.01917742      -0.02045969       0.02008894
In      12.74431985       1.28945811      13.34696112  F       17      -0.02683670       0.00626960       0.07725539
In      -3.76992867      10.45841758      13.58493911  F       18      -0.01790762      -0.00014812      -0.06753173
In       0.11143913       4.12172609      13.58493797  F       19      -0.02485328      -0.02411069       0.01945814
In       7.28372934       4.20526284      13.28077194  F       20       0.02285347      -0.03131840       0.03815930
In       3.65848992      10.65143468      13.58493907  F       21       0.00914997       0.02502752       0.02852969
In      -2.12514371       7.57248039      13.82744761  F       22      -0.05227149      -0.03153611      -0.06028192
In       1.78834112       6.98912009      13.82744861  F       23       0.01944941      -0.03860709      -0.04622869
In       3.89762555       4.37439996      13.55369945  F       24       0.03405260      -0.02250788       0.01522679
In       0.33680320      10.66997741      13.82744770  F       25       0.05478679       0.06315480      -0.06794563
In       8.83030441       1.18824328      13.55369950  F       26       0.02385977       0.04152088       0.06925084
In       9.12325787       7.05314622      13.55369981  F       27      -0.01950489      -0.03790387       0.00789741
O        1.94314284       9.09920259      13.79983277  F       28      -0.02508396       0.00562775       0.02898499
O       -0.37515974       6.38337672      13.79983300  F       29       0.01198554       0.02245978       0.01933134
O       -1.56798334       9.74899853      13.79983313  F       30      -0.01627374      -0.00171305       0.05904180
O       -1.90665604       3.49451490      14.07374983  F       31       0.02881376       0.03118378      -0.06146204
O       -3.30406258      12.51974383      14.07375025  F       32       0.01865330      -0.03353107       0.05706794
O        5.21071859       9.21731872      14.07374980  F       33      -0.00155345      -0.01691362      -0.01066002
O        6.95268262       0.11029125      14.35625235  F       34      -0.06492543      -0.07414167       0.02696133
O        3.90290295       6.53944318      14.35625252  F       35      -0.01557787       0.01497144       0.01174561
O       10.99560128       5.96605484      14.35625280  F       36       0.03393641       0.05001053      -0.01587398
O        5.60077915       3.29585311      14.56420047  F       37      -0.04437436       0.02941643      -0.06138951
O        8.91277589       3.20249084      14.56420075  F       38      -0.02649814       0.01173958      -0.12084454
O        7.33763173       6.11744518      14.56420087  F       39       0.00568508       0.02912125      -0.02577543
O        1.68336921       1.02548187      15.48953070  F       40       0.02089430      -0.02540593      -0.01307638
O       12.83768043       0.94510034      15.48953027  F       41       0.09444313      -0.05149594      -0.10877475
O        7.33013789      10.64520717      15.48953039  F       42       0.04406436      -0.04361914      -0.01606645
O       -3.87048772      10.25806959      15.75644575  F       43       0.13981108       0.00128278       0.08462783
O        0.33522381       4.13481358      15.75644581  F       44      -0.00257540       0.04564231      -0.00248710
O        3.53526358      10.83869431      15.75644572  F       45      -0.07413948      -0.12506925      -0.01574870
O        9.24484356       0.74344663      15.94429150  F       46      -0.17250195      -0.17618865      -0.07919894
O        3.30515102       4.23779662      15.94429168  F       47      -0.00760800       0.02428460       0.00300001
O        9.30119327       7.63454631      15.94429132  F       48       0.02097072       0.11210769      -0.02205609
O       -1.89390768       7.68105065      15.98554452  F       49       0.04546729       0.14533761       0.13469402
O        1.57869822       7.13509120      15.98554413  F       50      -0.02707499       0.11359735       0.09182006
O        0.31520971      10.41543579      15.98554439  F       51      -0.08182379      -0.03272462       0.07156230
In      -1.57901381       3.03754313      16.29163881  F       52      -0.26611465      -0.15789378       0.16136312
In      -3.86363272      12.46448245      16.29163869  F       53      -0.19104964       0.16704425      -0.08459602
In      -0.30746998       6.17668715      16.39885574  F       54      -0.03558487      -0.14913088      -0.16280380
In      -1.78082649       9.79372205      16.39885556  F       55       0.05919050      -0.14535341      -0.25298902
In       2.08829635       9.26116873      16.39885555  F       56       0.05170166       0.04408452       0.02495529
In       5.44264624       9.72955081      16.29163837  F       57       0.03965773       0.09959546       0.00085877
In      14.56745775       0.00000023      16.52452729  F       58      -0.11230431       0.03656751      -0.00743088
In       7.28372884       0.00000046      16.52452727  F       59       0.25298041       0.42074403       0.09843440
In       3.64186448       6.30789445      16.52452688  F       60       0.04829216      -0.08182757       0.01121709
In      -3.64186467       6.30789479      16.52452729  F       61      -0.15011789      -0.15049472      -0.02469613
In       9.06455585       2.82206686      16.65019864  F       62       0.03440536      -0.02031469       0.37220705
In       1.84108280       2.88623741      16.75741682  F       63      -0.05857670      -0.01722007      -0.04145276
In       5.19543306       3.35462016      16.65019954  F       64       0.23823632      -0.15041403       0.13039503
In      11.14736129       0.15130547      16.75741597  F       65       0.08816651       0.26355112      -0.24116872
In       7.59119877       6.43910216      16.65019924  F       66       0.08553662      -0.14353403      -0.02126127
In       8.86274257       9.57824538      16.75741545  F       67      -0.07012114      -0.03310229      -0.01128644
O        9.17763668       4.93473784      17.06350958  F       68       0.05806803       0.59218824      -0.32638124
O        6.96851909       2.20035367      17.06350993  F       69      -0.28603533      -0.39171281       0.28885844
O        5.70503103       5.48069763      17.06350990  F       70      -0.06136122       0.06359021       0.01600201
O       -2.01746347       4.98124236      17.10476289  F       71       0.05276209       0.10129979       0.06728534
O       -1.96111486      11.87234229      17.10476307  F       72      -0.11517759      -0.12126859      -0.03357896
O        3.97857827       8.37799246      17.10476382  F       73      -0.20137240       0.08589462       0.16614644
O        6.94850543       8.48097521      17.29260816  F       74       0.00761980      -0.00250459       0.02630411
O       11.15421650       2.35771879      17.29260829  F       75       0.22098538      -0.04718125       0.11297774
O        3.74846506       1.77709453      17.29260778  F       76      -0.12374687      -0.04255435      -0.10367042
O       -0.04640858       1.97058198      17.55952389  F       77       0.07587390       0.01021407      -0.04219988
O       -5.55395094      11.67068958      17.55952349  F       78       0.08636701      -0.04473382      -0.01121812
O        5.60035973      11.59030666      17.55952404  F       79       0.21348211      -0.16426109      -0.10098727
O       -1.57251710       9.44908138      18.51137816  T       80      -0.00199716      -0.00386804      -0.00101802
O        1.64069770       9.36409648      18.51824091  T       81      -0.00906765      -0.00369036      -0.00285619
O       -0.05060222       6.46331959      18.47881914  T       82      -0.00062154       0.00320065      -0.00500590
O        3.36790622       6.09295722      18.69876257  T       83       0.00468171       0.00585815      -0.00107937
O       -3.69128811       6.65527927      18.69378733  T       84       0.00180757       0.00378543       0.00624131
O        0.28409895      12.41518294      18.74069895  T       85       0.00719556       0.00194088       0.00697672
O        9.20382314       9.12121020      18.97786157  T       86       0.00225291      -0.00298339       0.00170250
O        2.05303373       3.41162236      18.97184550  T       87       0.00981188      -0.02570447      -0.00664303
O       10.62520200       0.04270740      18.86894172  T       88      -0.00003463       0.00140736       0.00512313
O        8.87477352       2.90490185      18.99276715  T       89       0.00662255      -0.00874405       0.00207633
O        5.33239010       3.51971109      19.24045740  T       90       0.00002594      -0.00079888       0.00571424
O        7.66193741       6.23952903      19.25858910  T       91      -0.00447598       0.00851712       0.00881273
In      -1.86622645       5.51226927      19.49172196  T       92       0.00975634      -0.00344208       0.00309385
In      -1.66935921      11.49990933      19.35576372  T       93      -0.00239448       0.00069880       0.00032908
In       6.98893671       1.97121020      19.33541182  T       94       0.00358754       0.00464453       0.00139283
In       3.39061737       8.24540571      19.50224680  T       95      -0.00756671      -0.00262260       0.00062943
In       5.49425604       5.62326294      19.22179885  T       96       0.00084161      -0.01042910      -0.00328553
In       9.40986130       5.03121930      19.20197547  T       97       0.00401501      -0.01105626      -0.00023438
In       0.00578148       8.32154845      19.67582371  T       98      -0.00681212      -0.00387803       0.00765307
In       3.60057217       1.99973754      19.45211164  T       99      -0.02123271       0.00703712      -0.00647900
In      10.92713526       2.10301302      19.54344531  T      100       0.00061652       0.00963444      -0.00204683
In       7.17947827       8.48289171      19.46241518  T      101       0.00331252      -0.00252551      -0.00519767
In      -5.48154620      11.33470970      19.69822658  T      102       0.00264584      -0.00418215       0.00109147
In      -3.31964123       8.59580471      19.59148528  T      103       0.00212736       0.00351369       0.00125204
In       0.15689540       2.21313178      19.70122716  T      104       0.00353670      -0.00112648      -0.01438771
In       1.49247885       5.41680985      19.60390948  T      105      -0.00040847       0.00593833      -0.00855465
In       1.90064092      11.26656631      19.56959629  T      106      -0.00133783       0.00763616      -0.00366589
In       5.25944037      11.68746802      19.69132882  T      107       0.01713900      -0.00017885      -0.00385702
O        1.82367603       0.85284256      20.13439404  T      108       0.00420320      -0.00457619      -0.00560522
O        7.08647908      10.57894248      20.14559004  T      109       0.00325415      -0.00255883       0.00270253
O       12.87134180       1.17469334      20.12488973  T      110       0.00533894       0.00409402      -0.01230854
O        5.36861932       7.56661358      20.08671765  T      111      -0.00192748       0.00763417      -0.00021493
O       11.11797334       4.16963759      20.12839251  T      112       0.00731197      -0.00490870      -0.00962031
O        5.26399308       0.86737453      19.99996453  T      113       0.01566917      -0.01437071       0.00656310
O       -0.24216106       4.24702281      20.25136965  T      114      -0.01439300       0.00380349       0.00192559
O       -3.48571426      10.68722073      20.22617570  T      115       0.00034608      -0.00135759       0.00706977
O        3.70251920      10.29272663      20.27201979  T      116       0.00336644      -0.01182225      -0.00523865
O       -1.78400739       7.46870474      20.58974604  T      117      -0.00239757       0.00419839       0.00353557
O        0.10207333      10.43974541      20.70619979  T      118       0.00761400       0.00037962      -0.00381005
O        1.71049276       7.32584754      20.60769482  T      119      -0.00942191       0.00746806      -0.00165796
O        9.67077891       1.15411079      21.31700561  T        0       0.01522514      -0.00365046      -0.00903767
O        7.59526360       2.06821793      21.51061878  T        0      -0.00741595      -0.00583860      -0.00061707
C        8.96020852       1.96333128      23.44569953  T        0       0.01782109      -0.00145619       0.00404838
C        8.72308889       1.70919603      21.97407503  T        0      -0.01455665      -0.01968171       0.01359844
H        9.55665846       1.15092888      23.87624003  T        0       0.01570718      -0.01084467       0.00028660
H        9.54210718       2.88976564      23.55536154  T        0       0.01752305       0.01017335      -0.01342686
H        8.00849704       2.08077809      23.97293757  T        0       0.00665698       0.00666785      -0.00416011
H        7.35256128      -2.19911986      21.67952106  T        0       0.00267473       0.00984715       0.00052166
