128
Lattice="14.567458257780915 0.0 0.0 -7.283729128890462 12.615788919807672 0.0 0.0 0.0 33.04905420593702" Properties=species:S:1:pos:R:3:move_mask:L:1:spacegroup_kinds:I:1:forces:R:3 spacegroup="P 1" unit_cell=conventional occupancy="_JSON {\"0\": {\"O\": 1.0}, \"1\": {\"O\": 1.0}, \"2\": {\"O\": 1.0}, \"3\": {\"O\": 1.0}, \"4\": {\"O\": 1.0}, \"5\": {\"O\": 1.0}, \"6\": {\"O\": 1.0}, \"7\": {\"O\": 1.0}, \"8\": {\"O\": 1.0}, \"9\": {\"O\": 1.0}, \"10\": {\"O\": 1.0}, \"11\": {\"O\": 1.0}, \"12\": {\"In\": 1.0}, \"13\": {\"In\": 1.0}, \"14\": {\"In\": 1.0}, \"15\": {\"In\": 1.0}, \"16\": {\"In\": 1.0}, \"17\": {\"In\": 1.0}, \"18\": {\"In\": 1.0}, \"19\": {\"In\": 1.0}, \"20\": {\"In\": 1.0}, \"21\": {\"In\": 1.0}, \"22\": {\"In\": 1.0}, \"23\": {\"In\": 1.0}, \"24\": {\"In\": 1.0}, \"25\": {\"In\": 1.0}, \"26\": {\"In\": 1.0}, \"27\": {\"In\": 1.0}, \"28\": {\"O\": 1.0}, \"29\": {\"O\": 1.0}, \"30\": {\"O\": 1.0}, \"31\": {\"O\": 1.0}, \"32\": {\"O\": 1.0}, \"33\": {\"O\": 1.0}, \"34\": {\"O\": 1.0}, \"35\": {\"O\": 1.0}, \"36\": {\"O\": 1.0}, \"37\": {\"O\": 1.0}, \"38\": {\"O\": 1.0}, \"39\": {\"O\": 1.0}, \"40\": {\"O\": 1.0}, \"41\": {\"O\": 1.0}, \"42\": {\"O\": 1.0}, \"43\": {\"O\": 1.0}, \"44\": {\"O\": 1.0}, \"45\": {\"O\": 1.0}, \"46\": {\"O\": 1.0}, \"47\": {\"O\": 1.0}, \"48\": {\"O\": 1.0}, \"49\": {\"O\": 1.0}, \"50\": {\"O\": 1.0}, \"51\": {\"O\": 1.0}, \"52\": {\"In\": 1.0}, \"53\": {\"In\": 1.0}, \"54\": {\"In\": 1.0}, \"55\": {\"In\": 1.0}, \"56\": {\"In\": 1.0}, \"57\": {\"In\": 1.0}, \"58\": {\"In\": 1.0}, \"59\": {\"In\": 1.0}, \"60\": {\"In\": 1.0}, \"61\": {\"In\": 1.0}, \"62\": {\"In\": 1.0}, \"63\": {\"In\": 1.0}, \"64\": {\"In\": 1.0}, \"65\": {\"In\": 1.0}, \"66\": {\"In\": 1.0}, \"67\": {\"In\": 1.0}, \"68\": {\"O\": 1.0}, \"69\": {\"O\": 1.0}, \"70\": {\"O\": 1.0}, \"71\": {\"O\": 1.0}, \"72\": {\"O\": 1.0}, \"73\": {\"O\": 1.0}, \"74\": {\"O\": 1.0}, \"75\": {\"O\": 1.0}, \"76\": {\"O\": 1.0}, \"77\": {\"O\": 1.0}, \"78\": {\"O\": 1.0}, \"79\": {\"O\": 1.0}, \"80\": {\"O\": 1.0}, \"81\": {\"O\": 1.0}, \"82\": {\"O\": 1.0}, \"83\": {\"O\": 1.0}, \"84\": {\"O\": 1.0}, \"85\": {\"O\": 1.0}, \"86\": {\"O\": 1.0}, \"87\": {\"O\": 1.0}, \"88\": {\"O\": 1.0}, \"89\": {\"O\": 1.0}, \"90\": {\"O\": 1.0}, \"91\": {\"O\": 1.0}, \"92\": {\"In\": 1.0}, \"93\": {\"In\": 1.0}, \"94\": {\"In\": 1.0}, \"95\": {\"In\": 1.0}, \"96\": {\"In\": 1.0}, \"97\": {\"In\": 1.0}, \"98\": {\"In\": 1.0}, \"99\": {\"In\": 1.0}, \"100\": {\"In\": 1.0}, \"101\": {\"In\": 1.0}, \"102\": {\"In\": 1.0}, \"103\": {\"In\": 1.0}, \"104\": {\"In\": 1.0}, \"105\": {\"In\": 1.0}, \"106\": {\"In\": 1.0}, \"107\": {\"In\": 1.0}, \"108\": {\"O\": 1.0}, \"109\": {\"O\": 1.0}, \"110\": {\"O\": 1.0}, \"111\": {\"O\": 1.0}, \"112\": {\"O\": 1.0}, \"113\": {\"O\": 1.0}, \"114\": {\"O\": 1.0}, \"115\": {\"O\": 1.0}, \"116\": {\"O\": 1.0}, \"117\": {\"O\": 1.0}, \"118\": {\"O\": 1.0}, \"119\": {\"O\": 1.0}}" energy=-705.6395263671875 free_energy=-705.6395263671875 stress="0.0077189370058476925 -1.0847708836081438e-05 -8.139459532685578e-05 -1.0847708836081438e-05 0.007907569408416748 8.22297515696846e-05 -8.139459532685578e-05 8.22297515696846e-05 1.7980757547775283e-05" pbc="T T T"
O        5.56112551       5.29730098      12.44442493  F        0       0.00685008      -0.00224528       0.00680757
O        7.19929797       2.16742567      12.44442488  F        1      -0.00475281      -0.00335655       0.00837052
O        9.09076378       5.15106294      12.44442506  F        2      -0.00141835       0.00079982       0.00626791
O        3.56236441       2.32744963      12.81467041  F        3       0.00461262      -0.00790074       0.00103629
O       10.77064547       1.92137361      12.81467059  F        4      -0.00254038       0.00102744      -0.00955510
O        7.51817736       8.36696557      12.81467060  F        5       0.00554949      -0.00291634      -0.00050426
O       -3.86713652       8.43746206      12.95843886  F        6       0.01313366      -0.00122331       0.01886368
O        1.91024068       5.04801920      12.95843918  F        7       0.00199485       0.01232930      -0.00453478
O        1.95689587      11.74609578      12.95843921  F        8      -0.02203791      -0.00249502       0.00342655
O       -5.62751792      11.43742505      12.90107995  F        9       0.01241474       0.01381802       0.01308775
O        0.19238766       2.02350350      12.90107932  F       10      -0.01021308      -0.00852925       0.00214392
O        5.43512990      11.77064967      12.90107909  F       11       0.01621230      -0.01594804      -0.00269836
In       2.02827288       0.93415595      13.34696164  F       12       0.00247351       0.01700769      -0.01542319
In       5.45297263       1.43044201      13.46548669  F       13       0.01198835      -0.00279935      -0.03916152
In       5.79604177       7.17815473      13.46548635  F       14      -0.03551410       0.00995514      -0.02061148
In       7.07859496      10.39217548      13.34696140  F       15      -0.02217794      -0.01712312      -0.01916121
In      10.60217256       4.00719198      13.46548647  F       16       0.02353980       0.00848671      -0.01644908
In      12.74431985       1.28945811      13.34696112  F       17      -0.01127005       0.01311485       0.01479542
In      -3.76992867      10.45841758      13.58493911  F       18      -0.00441687      -0.00664113      -0.00077626
In       0.11143913       4.12172609      13.58493797  F       19       0.00006873       0.00525857       0.06912214
In       7.28372934       4.20526284      13.28077194  F       20       0.00679467      -0.00292486      -0.02734216
In       3.65848992      10.65143468      13.58493907  F       21      -0.00659657       0.00204623       0.07386644
In      -2.12514371       7.57248039      13.82744761  F       22      -0.00472708      -0.01107186      -0.00112945
In       1.78834112       6.98912009      13.82744861  F       23      -0.00528492      -0.01150987       0.07088844
In       3.89762555       4.37439996      13.55369945  F       24      -0.00782900       0.01556741      -0.00699691
In       0.33680320      10.66997741      13.82744770  F       25       0.03215925       0.00121394      -0.00261196
In       8.83030441       1.18824328      13.55369950  F       26       0.00872397       0.00441845      -0.01197135
In       9.12325787       7.05314622      13.55369981  F       27       0.00152556      -0.01621927      -0.05072869
O        1.94314284       9.09920259      13.79983277  F       28      -0.01426984       0.03327066      -0.05113626
O       -0.37515974       6.38337672      13.79983300  F       29      -0.00425714       0.00254938      -0.04600978
O       -1.56798334       9.74899853      13.79983313  F       30      -0.02834326      -0.00075535      -0.01315451
O       -1.90665604       3.49451490      14.07374983  F       31      -0.01776088      -0.00347877      -0.04083417
O       -3.30406258      12.51974383      14.07375025  F       32       0.00697774       0.00516719       0.03349818
O        5.21071859       9.21731872      14.07374980  F       33       0.03059256      -0.01161313      -0.02118182
O        6.95268262       0.11029125      14.35625235  F       34      -0.01332971       0.01409699       0.00608911
O        3.90290295       6.53944318      14.35625252  F       35       0.03159680      -0.02128115      -0.02136802
O       10.99560128       5.96605484      14.35625280  F       36      -0.02394590       0.01919442       0.00061963
O        5.60077915       3.29585311      14.56420047  F       37      -0.00192592       0.00884846       0.03978378
O        8.91277589       3.20249084      14.56420075  F       38      -0.02567580      -0.01469621       0.02233738
O        7.33763173       6.11744518      14.56420087  F       39       0.02938025       0.00124215       0.04924601
O        1.68336921       1.02548187      15.48953070  F       40       0.03946140      -0.05821806       0.06614226
O       12.83768043       0.94510034      15.48953027  F       41       0.00976803       0.00431661       0.01574358
O        7.33013789      10.64520717      15.48953039  F       42       0.06174210      -0.02105211       0.07985575
O       -3.87048772      10.25806959      15.75644575  F       43      -0.14116547       0.08258832      -0.04111536
O        0.33522381       4.13481358      15.75644581  F       44       0.03252250      -0.11004297      -0.09555828
O        3.53526358      10.83869431      15.75644572  F       45       0.08438855       0.07461193      -0.11561757
O        9.24484356       0.74344663      15.94429150  F       46      -0.06798238       0.01739645       0.03359224
O        3.30515102       4.23779662      15.94429168  F       47       0.04716161      -0.04069719       0.02727678
O        9.30119327       7.63454631      15.94429132  F       48      -0.00488931       0.08508950       0.13667963
O       -1.89390768       7.68105065      15.98554452  F       49      -0.01281643       0.11709204       0.11704063
O        1.57869822       7.13509120      15.98554413  F       50       0.03050658       0.01580155      -0.05102824
O        0.31520971      10.41543579      15.98554439  F       51      -0.22656587       0.03105244       0.07093174
In      -1.57901381       3.03754313      16.29163881  F       52       0.00330920       0.09281452      -0.01860393
In      -3.86363272      12.46448245      16.29163869  F       53       0.06982112       0.00705537      -0.16420381
In      -0.30746998       6.17668715      16.39885574  F       54       0.12370911       0.00440174       0.26517576
In      -1.78082649       9.79372205      16.39885556  F       55      -0.09775364      -0.16023880      -0.00249228
In       2.08829635       9.26116873      16.39885555  F       56      -0.00579015       0.01120728       0.15053053
In       5.44264624       9.72955081      16.29163837  F       57      -0.16472194       0.00680456      -0.04268562
In      14.56745775       0.00000023      16.52452729  F       58      -0.16108079       0.10482974      -0.12169090
In       7.28372884       0.00000046      16.52452727  F       59       0.10669650      -0.00822194      -0.18997124
In       3.64186448       6.30789445      16.52452688  F       60      -0.13399056       0.10278234       0.00905239
In      -3.64186467       6.30789479      16.52452729  F       61       0.11872413      -0.11116709      -0.10104427
In       9.06455585       2.82206686      16.65019864  F       62       0.06014252      -0.01172760      -0.09178533
In       1.84108280       2.88623741      16.75741682  F       63      -0.10685756       0.13332549      -0.01933244
In       5.19543306       3.35462016      16.65019954  F       64      -0.01139060       0.04564278      -0.14431222
In      11.14736129       0.15130547      16.75741597  F       65      -0.03893716      -0.07100412      -0.05704605
In       7.59119877       6.43910216      16.65019924  F       66      -0.00324515      -0.08008301      -0.04828943
In       8.86274257       9.57824538      16.75741545  F       67       0.06651884      -0.02582249      -0.20207556
O        9.17763668       4.93473784      17.06350958  F       68      -0.05930039      -0.00776276       0.08359885
O        6.96851909       2.20035367      17.06350993  F       69       0.00105861      -0.03245097       0.14045328
O        5.70503103       5.48069763      17.06350990  F       70      -0.04330039      -0.08366763       0.14040199
O       -2.01746347       4.98124236      17.10476289  F       71      -0.26642653      -0.07878348      -0.13154592
O       -1.96111486      11.87234229      17.10476307  F       72       0.19710456       0.33994401      -0.12700638
O        3.97857827       8.37799246      17.10476382  F       73       0.24402660      -0.16071470      -0.11255251
O        6.94850543       8.48097521      17.29260816  F       74       0.23534389       0.04095837       0.18329394
O       11.15421650       2.35771879      17.29260829  F       75      -0.06903624      -0.02744189       0.02852350
O        3.74846506       1.77709453      17.29260778  F       76       0.02282479      -0.05551028       0.03419912
O       -0.04640858       1.97058198      17.55952389  F       77       0.03618950      -0.03772391       0.05885020
O       -5.55395094      11.67068958      17.55952349  F       78       0.02343790      -0.07613364       0.18813035
O        5.60035973      11.59030666      17.55952404  F       79       0.02297364      -0.02437126       0.12144940
O       -1.97305174       9.57667525      18.49646475  T       80      -0.00219712      -0.00730611      -0.00208931
O        1.77036506       9.39264721      18.46362749  T       81       0.00157160       0.00156775      -0.00900447
O       -0.07409476       6.40373495      18.48001666  T       82      -0.01336040      -0.00217450       0.01233634
O        3.35186460       6.08477780      18.70440338  T       83      -0.00202630       0.00167429       0.00587256
O       -3.72343583       6.62388527      18.69697131  T       84       0.01702192       0.00972465       0.01332239
O        0.34877628      12.49947816      18.70847198  T       85      -0.00478953      -0.02163740      -0.00416770
O        9.21433636       9.19485989      19.04594596  T       86       0.00234298      -0.00338307       0.00184736
O        2.07026824       3.38886214      18.98805031  T       87      -0.01606780       0.00456748      -0.00565591
O       10.57952268       0.09116959      18.97439161  T       88      -0.00205845      -0.00172681      -0.00357558
O        8.84608097       2.85964592      19.27124384  T       89      -0.00300139       0.00547357      -0.00864086
O        5.34005119       3.49951139      19.27569222  T       90      -0.00485332       0.01118889       0.00199002
O        7.65580919       6.24411796      19.24661428  T       91      -0.00074112      -0.02306905       0.00342715
In      -1.80108840       5.54778265      19.47695717  T       92       0.01591773       0.00263315       0.00491535
In      -1.46827612      11.41686203      19.42442501  T       93       0.00753407      -0.00499070      -0.01307309
In       6.94292132       1.94206282      19.22602171  T       94      -0.02136067      -0.00477579      -0.00217614
In       3.34302325       8.27779904      19.46924746  T       95       0.00196584      -0.00516084       0.00408824
In       5.45772141       5.62931608      19.22258819  T       96       0.00740843      -0.01192549      -0.00337391
In       9.40244690       5.02520068      19.22643844  T       97      -0.00540330       0.00420042      -0.01341316
In      -0.00514548       8.35738752      21.05981706  T       98       0.00129731      -0.01201906       0.00742859
In       3.62042177       1.97186638      19.45327257  T       99       0.01493868       0.00245426       0.00672720
In      11.06356236       2.15171812      19.46171088  T      100      -0.00499496       0.01258095      -0.00120600
In       7.15635323       8.46790979      19.46406761  T      101       0.01313695       0.00392455      -0.01154262
In      -5.61909173      11.36214816      19.69530938  T      102       0.01021369      -0.00947137       0.00840068
In      -3.35532125       8.51452322      19.60106642  T      103       0.00740249       0.00437710      -0.00193496
In       0.19832424       2.24201158      19.70238706  T      104      -0.01848980       0.00280431       0.00432940
In       1.45802636       5.47340166      19.59346610  T      105      -0.00183041      -0.00536239      -0.01726466
In       1.82818632      11.15007169      19.59689807  T      106       0.00725463      -0.00244571      -0.01317267
In       5.19976233      11.68087238      19.70542568  T      107      -0.00050907      -0.00846939       0.01301247
O        1.84155587       0.82695069      20.15880898  T      108       0.00272529       0.00265992      -0.00327474
O        7.02347404      10.56167515      20.16097893  T      109      -0.00619838      -0.00452015      -0.01402879
O       12.91626709       1.16693180      20.14022033  T      110      -0.00279729       0.00470040      -0.00334376
O        5.33977116       7.57520409      20.06698550  T      111      -0.01414689       0.00856887       0.00337267
O       11.16716564       4.17930970      20.06551177  T      112      -0.00714976       0.00048164       0.00005901
O        5.30571119       0.80658411      20.05206547  T      113      -0.00566573       0.00105580      -0.00581932
O       -0.22186134       4.23812274      20.29402265  T      114       0.00430787      -0.00487202      -0.00699747
O       -3.59648757      10.73530188      20.53412347  T      115       0.00621644      -0.00961334       0.01184475
O        3.69617165      10.30440446      20.35628842  T      116       0.00108248      -0.00082651      -0.01507992
O       -1.91388748       7.45283472      20.71433824  T      117      -0.00867820      -0.00983740      -0.00217849
O        0.05379164      10.48286845      20.68293626  T      118      -0.01136983       0.00708592      -0.02367824
O        1.78971035       7.31181495      20.69296996  T      119       0.00155592      -0.00265118       0.00696570
O       -0.11941284       8.67313062      23.18954835  T        0      -0.00941568       0.01509869      -0.01022220
O       -0.11772170       6.43080940      22.97759307  T        0       0.00151482      -0.01067054      -0.01069164
C       -0.30812922       7.37708137      25.20064868  T        0       0.00526249       0.00676894       0.00252670
C       -0.17811800       7.46449961      23.67605753  T        0       0.01943167       0.00381287       0.01038003
H        0.69053963       7.39129190      25.65585784  T        0      -0.00463898      -0.00008079      -0.00811387
H       -0.85637825       8.23583479      25.59989094  T        0      -0.00392591      -0.00246749      -0.00633047
H       -0.79042578       6.43790169      25.48343898  T        0       0.01384706      -0.00503096      -0.00538878
H       -3.49313877      10.92161931      21.48634330  T        0       0.01123966      -0.00248079       0.01271838
