128
Lattice="14.567458257780915 0.0 0.0 -7.283729128890462 12.615788919807672 0.0 0.0 0.0 33.04905420593702" Properties=species:S:1:pos:R:3:move_mask:L:1:spacegroup_kinds:I:1:forces:R:3 spacegroup="P 1" unit_cell=conventional occupancy="_JSON {\"0\": {\"O\": 1.0}, \"1\": {\"O\": 1.0}, \"2\": {\"O\": 1.0}, \"3\": {\"O\": 1.0}, \"4\": {\"O\": 1.0}, \"5\": {\"O\": 1.0}, \"6\": {\"O\": 1.0}, \"7\": {\"O\": 1.0}, \"8\": {\"O\": 1.0}, \"9\": {\"O\": 1.0}, \"10\": {\"O\": 1.0}, \"11\": {\"O\": 1.0}, \"12\": {\"In\": 1.0}, \"13\": {\"In\": 1.0}, \"14\": {\"In\": 1.0}, \"15\": {\"In\": 1.0}, \"16\": {\"In\": 1.0}, \"17\": {\"In\": 1.0}, \"18\": {\"In\": 1.0}, \"19\": {\"In\": 1.0}, \"20\": {\"In\": 1.0}, \"21\": {\"In\": 1.0}, \"22\": {\"In\": 1.0}, \"23\": {\"In\": 1.0}, \"24\": {\"In\": 1.0}, \"25\": {\"In\": 1.0}, \"26\": {\"In\": 1.0}, \"27\": {\"In\": 1.0}, \"28\": {\"O\": 1.0}, \"29\": {\"O\": 1.0}, \"30\": {\"O\": 1.0}, \"31\": {\"O\": 1.0}, \"32\": {\"O\": 1.0}, \"33\": {\"O\": 1.0}, \"34\": {\"O\": 1.0}, \"35\": {\"O\": 1.0}, \"36\": {\"O\": 1.0}, \"37\": {\"O\": 1.0}, \"38\": {\"O\": 1.0}, \"39\": {\"O\": 1.0}, \"40\": {\"O\": 1.0}, \"41\": {\"O\": 1.0}, \"42\": {\"O\": 1.0}, \"43\": {\"O\": 1.0}, \"44\": {\"O\": 1.0}, \"45\": {\"O\": 1.0}, \"46\": {\"O\": 1.0}, \"47\": {\"O\": 1.0}, \"48\": {\"O\": 1.0}, \"49\": {\"O\": 1.0}, \"50\": {\"O\": 1.0}, \"51\": {\"O\": 1.0}, \"52\": {\"In\": 1.0}, \"53\": {\"In\": 1.0}, \"54\": {\"In\": 1.0}, \"55\": {\"In\": 1.0}, \"56\": {\"In\": 1.0}, \"57\": {\"In\": 1.0}, \"58\": {\"In\": 1.0}, \"59\": {\"In\": 1.0}, \"60\": {\"In\": 1.0}, \"61\": {\"In\": 1.0}, \"62\": {\"In\": 1.0}, \"63\": {\"In\": 1.0}, \"64\": {\"In\": 1.0}, \"65\": {\"In\": 1.0}, \"66\": {\"In\": 1.0}, \"67\": {\"In\": 1.0}, \"68\": {\"O\": 1.0}, \"69\": {\"O\": 1.0}, \"70\": {\"O\": 1.0}, \"71\": {\"O\": 1.0}, \"72\": {\"O\": 1.0}, \"73\": {\"O\": 1.0}, \"74\": {\"O\": 1.0}, \"75\": {\"O\": 1.0}, \"76\": {\"O\": 1.0}, \"77\": {\"O\": 1.0}, \"78\": {\"O\": 1.0}, \"79\": {\"O\": 1.0}, \"80\": {\"O\": 1.0}, \"81\": {\"O\": 1.0}, \"82\": {\"O\": 1.0}, \"83\": {\"O\": 1.0}, \"84\": {\"O\": 1.0}, \"85\": {\"O\": 1.0}, \"86\": {\"O\": 1.0}, \"87\": {\"O\": 1.0}, \"88\": {\"O\": 1.0}, \"89\": {\"O\": 1.0}, \"90\": {\"O\": 1.0}, \"91\": {\"O\": 1.0}, \"92\": {\"In\": 1.0}, \"93\": {\"In\": 1.0}, \"94\": {\"In\": 1.0}, \"95\": {\"In\": 1.0}, \"96\": {\"In\": 1.0}, \"97\": {\"In\": 1.0}, \"98\": {\"In\": 1.0}, \"99\": {\"In\": 1.0}, \"100\": {\"In\": 1.0}, \"101\": {\"In\": 1.0}, \"102\": {\"In\": 1.0}, \"103\": {\"In\": 1.0}, \"104\": {\"In\": 1.0}, \"105\": {\"In\": 1.0}, \"106\": {\"In\": 1.0}, \"107\": {\"In\": 1.0}, \"108\": {\"O\": 1.0}, \"109\": {\"O\": 1.0}, \"110\": {\"O\": 1.0}, \"111\": {\"O\": 1.0}, \"112\": {\"O\": 1.0}, \"113\": {\"O\": 1.0}, \"114\": {\"O\": 1.0}, \"115\": {\"O\": 1.0}, \"116\": {\"O\": 1.0}, \"117\": {\"O\": 1.0}, \"118\": {\"O\": 1.0}, \"119\": {\"O\": 1.0}}" energy=-707.5203857421875 free_energy=-707.5203857421875 stress="0.00782275665551424 0.00019896790036000311 9.343549027107656e-05 0.00019896790036000311 0.007603578269481659 -6.704151746816933e-05 9.343549027107656e-05 -6.704151746816933e-05 -6.060915984562598e-05" pbc="T T T"
O        5.56112551       5.29730098      12.44442493  F        0      -0.03696370       0.00267898       0.00332546
O        7.19929797       2.16742567      12.44442488  F        1      -0.01649203      -0.01785582      -0.00591290
O        9.09076378       5.15106294      12.44442506  F        2       0.00158823      -0.00711519      -0.01685607
O        3.56236441       2.32744963      12.81467041  F        3      -0.00562072       0.00485473      -0.01058066
O       10.77064547       1.92137361      12.81467059  F        4       0.02112597      -0.01065955      -0.01562673
O        7.51817736       8.36696557      12.81467060  F        5      -0.03658065       0.02361524      -0.02671641
O       -3.86713652       8.43746206      12.95843886  F        6       0.04692557       0.01153995      -0.02192885
O        1.91024068       5.04801920      12.95843918  F        7       0.00285494       0.02459218       0.02260607
O        1.95689587      11.74609578      12.95843921  F        8      -0.00817530      -0.03276148       0.02622396
O       -5.62751792      11.43742505      12.90107995  F        9       0.01454642       0.03393369      -0.01907384
O        0.19238766       2.02350350      12.90107932  F       10      -0.01518179       0.01027337      -0.00129277
O        5.43512990      11.77064967      12.90107909  F       11      -0.01144020      -0.02035777       0.00519395
In       2.02827288       0.93415595      13.34696164  F       12       0.01193058      -0.01313329       0.02070670
In       5.45297263       1.43044201      13.46548669  F       13       0.00134249      -0.00773649      -0.01290643
In       5.79604177       7.17815473      13.46548635  F       14       0.07564028      -0.02570653      -0.01318365
In       7.07859496      10.39217548      13.34696140  F       15       0.03847518      -0.01309305       0.05638187
In      10.60217256       4.00719198      13.46548647  F       16      -0.03000809       0.03688120       0.02170356
In      12.74431985       1.28945811      13.34696112  F       17      -0.01429474       0.00835753       0.01592374
In      -3.76992867      10.45841758      13.58493911  F       18      -0.02411252      -0.02202868       0.10037381
In       0.11143913       4.12172609      13.58493797  F       19      -0.02241535      -0.01444062      -0.02570873
In       7.28372934       4.20526284      13.28077194  F       20       0.03806913       0.02967576       0.03383261
In       3.65848992      10.65143468      13.58493907  F       21       0.02207204       0.01112688      -0.06381440
In      -2.12514371       7.57248039      13.82744761  F       22      -0.09041946      -0.00577640       0.02055989
In       1.78834112       6.98912009      13.82744861  F       23      -0.00721136      -0.04838881      -0.08580583
In       3.89762555       4.37439996      13.55369945  F       24       0.04302611      -0.02627428      -0.04389601
In       0.33680320      10.66997741      13.82744770  F       25      -0.01141667       0.04163899      -0.06303257
In       8.83030441       1.18824328      13.55369950  F       26       0.00121544       0.05554735       0.01273540
In       9.12325787       7.05314622      13.55369981  F       27       0.00175260       0.00359789       0.12301995
O        1.94314284       9.09920259      13.79983277  F       28       0.00762224       0.00353789       0.06038037
O       -0.37515974       6.38337672      13.79983300  F       29       0.05576211      -0.00735635       0.02107406
O       -1.56798334       9.74899853      13.79983313  F       30       0.03666645      -0.00309573      -0.00846791
O       -1.90665604       3.49451490      14.07374983  F       31       0.02675234       0.00309497      -0.00276329
O       -3.30406258      12.51974383      14.07375025  F       32       0.01915464       0.02954674      -0.03903742
O        5.21071859       9.21731872      14.07374980  F       33      -0.06606707      -0.00599024       0.02573167
O        6.95268262       0.11029125      14.35625235  F       34       0.00480887      -0.02492949       0.01226091
O        3.90290295       6.53944318      14.35625252  F       35      -0.03668505       0.03711534       0.08157145
O       10.99560128       5.96605484      14.35625280  F       36       0.06131339      -0.01199350      -0.06725455
O        5.60077915       3.29585311      14.56420047  F       37      -0.03992398       0.01237778       0.00769842
O        8.91277589       3.20249084      14.56420075  F       38      -0.02254114      -0.06784273      -0.07482606
O        7.33763173       6.11744518      14.56420087  F       39      -0.04799460      -0.02940184      -0.10564345
O        1.68336921       1.02548187      15.48953070  F       40       0.01641759       0.07193290      -0.02177824
O       12.83768043       0.94510034      15.48953027  F       41       0.00445059      -0.00704712       0.00013548
O        7.33013789      10.64520717      15.48953039  F       42      -0.05034311       0.08710700      -0.09219304
O       -3.87048772      10.25806959      15.75644575  F       43       0.09771132       0.06373414      -0.12525915
O        0.33522381       4.13481358      15.75644581  F       44       0.04806706       0.06607752       0.04579218
O        3.53526358      10.83869431      15.75644572  F       45      -0.06570497      -0.13741799       0.09538464
O        9.24484356       0.74344663      15.94429150  F       46      -0.00162858      -0.05208907       0.00323708
O        3.30515102       4.23779662      15.94429168  F       47      -0.05245864       0.09205668       0.08511934
O        9.30119327       7.63454631      15.94429132  F       48       0.05991633      -0.02616867      -0.17457227
O       -1.89390768       7.68105065      15.98554452  F       49       0.19236664      -0.03609973       0.02257022
O        1.57869822       7.13509120      15.98554413  F       50       0.06711650       0.03636116       0.07137741
O        0.31520971      10.41543579      15.98554439  F       51       0.10389403      -0.10558811       0.15004948
In      -1.57901381       3.03754313      16.29163881  F       52      -0.09813341      -0.02064716       0.02759458
In      -3.86363272      12.46448245      16.29163869  F       53      -0.09216551      -0.09249019       0.00864961
In      -0.30746998       6.17668715      16.39885574  F       54      -0.13928345      -0.01335531      -0.17329979
In      -1.78082649       9.79372205      16.39885556  F       55      -0.22605065      -0.04826393       0.04894617
In       2.08829635       9.26116873      16.39885555  F       56      -0.16862993       0.04234608      -0.17536944
In       5.44264624       9.72955081      16.29163837  F       57       0.42600870       0.00856746      -0.01204854
In      14.56745775       0.00000023      16.52452729  F       58       0.09705290      -0.07403469      -0.01353454
In       7.28372884       0.00000046      16.52452727  F       59      -0.02286133       0.07246396       0.00058714
In       3.64186448       6.30789445      16.52452688  F       60       0.10216793      -0.23865959      -0.13517264
In      -3.64186467       6.30789479      16.52452729  F       61      -0.33274865      -0.02431257       0.25827396
In       9.06455585       2.82206686      16.65019864  F       62       0.06019475       0.35011929       0.14576639
In       1.84108280       2.88623741      16.75741682  F       63      -0.00574499      -0.14652072      -0.15276363
In       5.19543306       3.35462016      16.65019954  F       64       0.08557113       0.01856836      -0.01771145
In      11.14736129       0.15130547      16.75741597  F       65       0.01798812       0.08149608      -0.00407750
In       7.59119877       6.43910216      16.65019924  F       66       0.24475592      -0.00234620       0.23624873
In       8.86274257       9.57824538      16.75741545  F       67      -0.00048555      -0.05308351      -0.20980060
O        9.17763668       4.93473784      17.06350958  F       68       0.15126614      -0.16700599       0.19748788
O        6.96851909       2.20035367      17.06350993  F       69      -0.04463124      -0.08483669       0.03583826
O        5.70503103       5.48069763      17.06350990  F       70      -0.61834097      -0.10846987      -0.11563472
O       -2.01746347       4.98124236      17.10476289  F       71       0.36996365       0.08066687       0.06073047
O       -1.96111486      11.87234229      17.10476307  F       72       0.03839988       0.01029766       0.04979320
O        3.97857827       8.37799246      17.10476382  F       73      -0.04708864       0.03953651       0.09297383
O        6.94850543       8.48097521      17.29260816  F       74      -0.22164109       0.15550399       0.02866529
O       11.15421650       2.35771879      17.29260829  F       75       0.06380980      -0.19713569      -0.14976203
O        3.74846506       1.77709453      17.29260778  F       76       0.04463643       0.01158358      -0.01252561
O       -0.04640858       1.97058198      17.55952389  F       77       0.01177107       0.05476078       0.01833880
O       -5.55395094      11.67068958      17.55952349  F       78      -0.02113428       0.31040922      -0.11357604
O        5.60035973      11.59030666      17.55952404  F       79      -0.07045991      -0.02451304      -0.01315516
O       -1.70129381       9.40995788      18.49329374  T       80      -0.01136252       0.00108089      -0.00232536
O        1.69070533       9.23440995      18.51491943  T       81      -0.00071153      -0.00526682       0.00733766
O        0.00278317       6.51888203      18.49680696  T       82       0.00933260       0.01136067       0.02269727
O        3.33977212       6.14976247      18.74041116  T       83      -0.01617065      -0.01270729       0.01003055
O       -3.68115844       6.63470112      18.68535522  T       84      -0.00200769      -0.00368282       0.00429989
O        0.32853284      12.47425542      18.69392050  T       85       0.00632203      -0.00418571      -0.01386968
O        9.22762551       9.18672226      18.86726430  T       86       0.00550411       0.00441515      -0.00057613
O        2.09851524       3.38606039      18.95221105  T       87       0.01096168      -0.00298715      -0.00362153
O       10.58869029       0.06030863      18.98211886  T       88      -0.00218523      -0.01695077      -0.00149173
O        8.85841889       2.86262091      19.23802975  T       89      -0.00594270       0.00187489       0.00728822
O        5.34039092       3.52156295      19.25976966  T       90      -0.01905388       0.00110787       0.00619364
O        7.62570036       6.24587961      19.04206637  T       91       0.00366919       0.00438246      -0.00379252
In      -1.85052445       5.54273346      19.45827824  T       92      -0.01760529       0.00217597       0.01676264
In      -1.58860393      11.41531911      19.48347376  T       93      -0.00039010      -0.00170301       0.00590925
In       6.96587397       1.93839644      19.22276073  T       94       0.00977681       0.01001552      -0.00871702
In       3.53013381       8.29549261      19.38002260  T       95      -0.00008839       0.01816203      -0.01137801
In       5.54206601       5.62293185      19.21634666  T       96      -0.00601850       0.00753181       0.01218933
In       9.40639373       5.07306037      19.32119160  T       97      -0.00700739      -0.00164675      -0.00621681
In      -0.11974572       8.44939003      19.66533166  T       98       0.01227750       0.01482286       0.01141422
In       3.63892102       1.94531629      19.46202578  T       99       0.01230021      -0.01172360      -0.00376296
In      11.05094014       2.12545518      19.44776422  T      100       0.00522908       0.01004093       0.01017234
In       7.31668065       8.42028925      19.49523740  T      101      -0.01262395      -0.01639451       0.01697634
In      -5.45437829      11.31356154      19.69250511  T      102       0.01736523       0.00771669      -0.00451687
In      -3.45052413       8.54304504      19.73501714  T      103      -0.00046638       0.01430818      -0.00451337
In       0.19771590       2.19256663      19.70094343  T      104       0.00176349       0.00402507       0.00270696
In       1.48717178       5.36085733      19.52535893  T      105       0.01739565      -0.00169691      -0.00819623
In       1.82522413      11.17069115      19.58751442  T      106      -0.00930657      -0.00840868      -0.00436850
In       5.29146019      11.65253535      19.69872276  T      107      -0.00700049       0.01384641      -0.01261437
O        1.85533028       0.85037117      20.14356585  T      108      -0.00606426       0.00262845      -0.00904280
O        7.10778828      10.54691498      20.14089331  T      109       0.00074704      -0.00298661       0.00006956
O       12.92130304       1.13956129      20.14433624  T      110      -0.00093459      -0.00476299       0.00336522
O        5.42398045       7.55595120      20.10707371  T      111       0.00877624      -0.00235845      -0.00729918
O       11.22452641       4.11769534      19.99365554  T      112      -0.00798031       0.00571668       0.00532663
O        5.34567632       0.86680269      20.08565153  T      113       0.00815533      -0.00852567      -0.00517648
O       -0.20708759       4.24310493      20.22788359  T      114      -0.01004856      -0.00089478      -0.00012946
O       -3.49175061      10.68837483      20.27650756  T      115      -0.00550764       0.00032791       0.00007612
O        3.72411180      10.26507483      20.23437467  T      116       0.00606021      -0.00636930       0.00530893
O       -1.77810363       7.43207559      20.61325578  T      117       0.00669980      -0.00886323      -0.00160700
O        0.08077897      10.41651572      20.59090003  T      118       0.00968340      -0.01510090       0.00698161
O        1.70982961       7.28729212      20.69196355  T      119       0.00149730       0.00059736      -0.00046396
O       -5.13964336       7.82238594      21.24987942  T        0      -0.01305477      -0.00276172       0.01048176
O       -5.40433759       5.58575539      21.52891861  T        0       0.02265131       0.00944388      -0.00940686
C       -4.56983573       6.88534056      23.35546030  T        0      -0.02483375       0.01011997       0.00202278
C       -5.07303550       6.73773656      21.94006660  T        0       0.00450671      -0.00374070       0.00053895
H       -3.63888274       7.46858245      23.33336037  T        0       0.00009525       0.00172014       0.00780239
H       -5.29873381       7.46104568      23.94242951  T        0       0.00223218       0.01967553       0.01903064
H       -4.40744788       5.90611866      23.81523047  T        0      -0.01999923       0.00196719       0.00931715
H        1.68917084       7.29919239      21.66571961  T        0       0.01026932       0.00310199       0.00048560
