128
Lattice="14.567458257780915 0.0 0.0 -7.283729128890462 12.615788919807672 0.0 0.0 0.0 33.04905420593702" Properties=species:S:1:pos:R:3:move_mask:L:1:spacegroup_kinds:I:1:forces:R:3 spacegroup="P 1" unit_cell=conventional occupancy="_JSON {\"0\": {\"O\": 1.0}, \"1\": {\"O\": 1.0}, \"2\": {\"O\": 1.0}, \"3\": {\"O\": 1.0}, \"4\": {\"O\": 1.0}, \"5\": {\"O\": 1.0}, \"6\": {\"O\": 1.0}, \"7\": {\"O\": 1.0}, \"8\": {\"O\": 1.0}, \"9\": {\"O\": 1.0}, \"10\": {\"O\": 1.0}, \"11\": {\"O\": 1.0}, \"12\": {\"In\": 1.0}, \"13\": {\"In\": 1.0}, \"14\": {\"In\": 1.0}, \"15\": {\"In\": 1.0}, \"16\": {\"In\": 1.0}, \"17\": {\"In\": 1.0}, \"18\": {\"In\": 1.0}, \"19\": {\"In\": 1.0}, \"20\": {\"In\": 1.0}, \"21\": {\"In\": 1.0}, \"22\": {\"In\": 1.0}, \"23\": {\"In\": 1.0}, \"24\": {\"In\": 1.0}, \"25\": {\"In\": 1.0}, \"26\": {\"In\": 1.0}, \"27\": {\"In\": 1.0}, \"28\": {\"O\": 1.0}, \"29\": {\"O\": 1.0}, \"30\": {\"O\": 1.0}, \"31\": {\"O\": 1.0}, \"32\": {\"O\": 1.0}, \"33\": {\"O\": 1.0}, \"34\": {\"O\": 1.0}, \"35\": {\"O\": 1.0}, \"36\": {\"O\": 1.0}, \"37\": {\"O\": 1.0}, \"38\": {\"O\": 1.0}, \"39\": {\"O\": 1.0}, \"40\": {\"O\": 1.0}, \"41\": {\"O\": 1.0}, \"42\": {\"O\": 1.0}, \"43\": {\"O\": 1.0}, \"44\": {\"O\": 1.0}, \"45\": {\"O\": 1.0}, \"46\": {\"O\": 1.0}, \"47\": {\"O\": 1.0}, \"48\": {\"O\": 1.0}, \"49\": {\"O\": 1.0}, \"50\": {\"O\": 1.0}, \"51\": {\"O\": 1.0}, \"52\": {\"In\": 1.0}, \"53\": {\"In\": 1.0}, \"54\": {\"In\": 1.0}, \"55\": {\"In\": 1.0}, \"56\": {\"In\": 1.0}, \"57\": {\"In\": 1.0}, \"58\": {\"In\": 1.0}, \"59\": {\"In\": 1.0}, \"60\": {\"In\": 1.0}, \"61\": {\"In\": 1.0}, \"62\": {\"In\": 1.0}, \"63\": {\"In\": 1.0}, \"64\": {\"In\": 1.0}, \"65\": {\"In\": 1.0}, \"66\": {\"In\": 1.0}, \"67\": {\"In\": 1.0}, \"68\": {\"O\": 1.0}, \"69\": {\"O\": 1.0}, \"70\": {\"O\": 1.0}, \"71\": {\"O\": 1.0}, \"72\": {\"O\": 1.0}, \"73\": {\"O\": 1.0}, \"74\": {\"O\": 1.0}, \"75\": {\"O\": 1.0}, \"76\": {\"O\": 1.0}, \"77\": {\"O\": 1.0}, \"78\": {\"O\": 1.0}, \"79\": {\"O\": 1.0}, \"80\": {\"O\": 1.0}, \"81\": {\"O\": 1.0}, \"82\": {\"O\": 1.0}, \"83\": {\"O\": 1.0}, \"84\": {\"O\": 1.0}, \"85\": {\"O\": 1.0}, \"86\": {\"O\": 1.0}, \"87\": {\"O\": 1.0}, \"88\": {\"O\": 1.0}, \"89\": {\"O\": 1.0}, \"90\": {\"O\": 1.0}, \"91\": {\"O\": 1.0}, \"92\": {\"In\": 1.0}, \"93\": {\"In\": 1.0}, \"94\": {\"In\": 1.0}, \"95\": {\"In\": 1.0}, \"96\": {\"In\": 1.0}, \"97\": {\"In\": 1.0}, \"98\": {\"In\": 1.0}, \"99\": {\"In\": 1.0}, \"100\": {\"In\": 1.0}, \"101\": {\"In\": 1.0}, \"102\": {\"In\": 1.0}, \"103\": {\"In\": 1.0}, \"104\": {\"In\": 1.0}, \"105\": {\"In\": 1.0}, \"106\": {\"In\": 1.0}, \"107\": {\"In\": 1.0}, \"108\": {\"O\": 1.0}, \"109\": {\"O\": 1.0}, \"110\": {\"O\": 1.0}, \"111\": {\"O\": 1.0}, \"112\": {\"O\": 1.0}, \"113\": {\"O\": 1.0}, \"114\": {\"O\": 1.0}, \"115\": {\"O\": 1.0}, \"116\": {\"O\": 1.0}, \"117\": {\"O\": 1.0}, \"118\": {\"O\": 1.0}, \"119\": {\"O\": 1.0}}" energy=-706.3810424804688 free_energy=-706.3810424804688 stress="0.007010514382272959 -0.00021251417638268322 2.100127312587574e-05 -0.00021251417638268322 0.007112547755241394 -0.00012562291522044688 2.100127312587574e-05 -0.00012562291522044688 6.505560304503888e-05" pbc="T T T"
O        5.56112551       5.29730098      12.44442493  F        0      -0.00592405       0.00372955       0.00801706
O        7.19929797       2.16742567      12.44442488  F        1       0.00263897      -0.00134778       0.00831878
O        9.09076378       5.15106294      12.44442506  F        2       0.01085657      -0.00028214       0.01250684
O        3.56236441       2.32744963      12.81467041  F        3       0.00763646       0.00724543      -0.00778645
O       10.77064547       1.92137361      12.81467059  F        4       0.00203991       0.01027593       0.00024033
O        7.51817736       8.36696557      12.81467060  F        5      -0.00564402      -0.00767437      -0.01150948
O       -3.86713652       8.43746206      12.95843886  F        6       0.02601269      -0.02432252       0.01242244
O        1.91024068       5.04801920      12.95843918  F        7      -0.01002011       0.02650969       0.02814174
O        1.95689587      11.74609578      12.95843921  F        8      -0.01545729      -0.01566647       0.01025170
O       -5.62751792      11.43742505      12.90107995  F        9       0.01954179       0.01334259      -0.01466089
O        0.19238766       2.02350350      12.90107932  F       10      -0.03411742       0.02406273       0.00035620
O        5.43512990      11.77064967      12.90107909  F       11      -0.00599759      -0.01727064      -0.00097883
In       2.02827288       0.93415595      13.34696164  F       12       0.00316928      -0.00731475       0.06588557
In       5.45297263       1.43044201      13.46548669  F       13      -0.00936031      -0.01928928      -0.02131920
In       5.79604177       7.17815473      13.46548635  F       14       0.00336704       0.01107673      -0.02845559
In       7.07859496      10.39217548      13.34696140  F       15       0.01532652       0.00340051       0.07071764
In      10.60217256       4.00719198      13.46548647  F       16      -0.01373031      -0.00371891      -0.05039246
In      12.74431985       1.28945811      13.34696112  F       17      -0.00028752      -0.02143510       0.02585348
In      -3.76992867      10.45841758      13.58493911  F       18      -0.01991984       0.00996112       0.05490005
In       0.11143913       4.12172609      13.58493797  F       19       0.01387347      -0.02384449      -0.02303563
In       7.28372934       4.20526284      13.28077194  F       20      -0.00705194       0.00559942      -0.01636429
In       3.65848992      10.65143468      13.58493907  F       21       0.01817547       0.00486154       0.00752540
In      -2.12514371       7.57248039      13.82744761  F       22      -0.04026201       0.03226214      -0.06619203
In       1.78834112       6.98912009      13.82744861  F       23       0.02327261      -0.02652232      -0.07063620
In       3.89762555       4.37439996      13.55369945  F       24       0.01737257      -0.01519127      -0.04113100
In       0.33680320      10.66997741      13.82744770  F       25       0.01751531       0.02699897      -0.01406826
In       8.83030441       1.18824328      13.55369950  F       26      -0.00459352       0.00153504      -0.01048186
In       9.12325787       7.05314622      13.55369981  F       27      -0.02736592       0.01223519      -0.01397904
O        1.94314284       9.09920259      13.79983277  F       28      -0.00885704      -0.00483012       0.01672983
O       -0.37515974       6.38337672      13.79983300  F       29       0.01371354      -0.00723049       0.03879428
O       -1.56798334       9.74899853      13.79983313  F       30       0.00327998      -0.03254479       0.00439435
O       -1.90665604       3.49451490      14.07374983  F       31      -0.01101617       0.02956194       0.04576658
O       -3.30406258      12.51974383      14.07375025  F       32       0.02466527       0.01002523      -0.02276747
O        5.21071859       9.21731872      14.07374980  F       33      -0.02453333      -0.02186874      -0.02238062
O        6.95268262       0.11029125      14.35625235  F       34       0.00437075       0.00186838       0.00535233
O        3.90290295       6.53944318      14.35625252  F       35      -0.02428437      -0.00190192       0.03077815
O       10.99560128       5.96605484      14.35625280  F       36       0.02362415      -0.01481915       0.04760898
O        5.60077915       3.29585311      14.56420047  F       37      -0.00465664       0.03110899       0.03230435
O        8.91277589       3.20249084      14.56420075  F       38       0.00028609      -0.00656280       0.03071278
O        7.33763173       6.11744518      14.56420087  F       39       0.02518637      -0.01374179       0.01554626
O        1.68336921       1.02548187      15.48953070  F       40       0.03703984       0.10343686      -0.07796501
O       12.83768043       0.94510034      15.48953027  F       41      -0.03826306       0.05969036      -0.01401640
O        7.33013789      10.64520717      15.48953039  F       42      -0.09533329      -0.05471189      -0.11229739
O       -3.87048772      10.25806959      15.75644575  F       43       0.13890083      -0.08520925      -0.08268742
O        0.33522381       4.13481358      15.75644581  F       44      -0.03489020       0.05370523       0.02231197
O        3.53526358      10.83869431      15.75644572  F       45      -0.06238401      -0.03943470      -0.01109288
O        9.24484356       0.74344663      15.94429150  F       46       0.02108482       0.03759021       0.00029747
O        3.30515102       4.23779662      15.94429168  F       47      -0.08819252       0.01513660       0.10940617
O        9.30119327       7.63454631      15.94429132  F       48       0.02378586      -0.03054652       0.02666828
O       -1.89390768       7.68105065      15.98554452  F       49       0.09586106      -0.13057223       0.10966988
O        1.57869822       7.13509120      15.98554413  F       50      -0.10839126      -0.03178351       0.14714667
O        0.31520971      10.41543579      15.98554439  F       51       0.02592936      -0.04796821       0.01419228
In      -1.57901381       3.03754313      16.29163881  F       52       0.10023959      -0.18729091      -0.04158709
In      -3.86363272      12.46448245      16.29163869  F       53      -0.23265779      -0.06798564       0.22543415
In      -0.30746998       6.17668715      16.39885574  F       54       0.12129751      -0.04984359      -0.19848339
In      -1.78082649       9.79372205      16.39885556  F       55      -0.03515507       0.09134053       0.00551136
In       2.08829635       9.26116873      16.39885555  F       56      -0.00193570       0.04726779       0.00472589
In       5.44264624       9.72955081      16.29163837  F       57       0.09565923       0.07697608      -0.00652138
In      14.56745775       0.00000023      16.52452729  F       58       0.20683154      -0.12099199       0.18207236
In       7.28372884       0.00000046      16.52452727  F       59      -0.01782758      -0.04267589      -0.06752338
In       3.64186448       6.30789445      16.52452688  F       60       0.08090711       0.02434952      -0.15311719
In      -3.64186467       6.30789479      16.52452729  F       61      -0.17279612       0.09441736      -0.27190602
In       9.06455585       2.82206686      16.65019864  F       62      -0.01808470      -0.02855177      -0.15621001
In       1.84108280       2.88623741      16.75741682  F       63      -0.12484850      -0.19185169       0.11068427
In       5.19543306       3.35462016      16.65019954  F       64       0.04035768      -0.01245882      -0.13047472
In      11.14736129       0.15130547      16.75741597  F       65       0.05148778      -0.09701584      -0.04833888
In       7.59119877       6.43910216      16.65019924  F       66      -0.01380383       0.06378947      -0.09842624
In       8.86274257       9.57824538      16.75741545  F       67      -0.00270711       0.30694208       0.19881609
O        9.17763668       4.93473784      17.06350958  F       68       0.02673386      -0.03482550       0.05762794
O        6.96851909       2.20035367      17.06350993  F       69       0.10452028       0.02453527       0.10303222
O        5.70503103       5.48069763      17.06350990  F       70       0.01905966      -0.00243199       0.01528404
O       -2.01746347       4.98124236      17.10476289  F       71      -0.07437754       0.06799993       0.11471728
O       -1.96111486      11.87234229      17.10476307  F       72       0.04262418      -0.02707464       0.06224221
O        3.97857827       8.37799246      17.10476382  F       73      -0.03012714       0.01791951       0.05463263
O        6.94850543       8.48097521      17.29260816  F       74       0.02665478      -0.14285263      -0.05291442
O       11.15421650       2.35771879      17.29260829  F       75      -0.00381241       0.07089114      -0.04048447
O        3.74846506       1.77709453      17.29260778  F       76       0.13515633       0.40769392      -0.20773602
O       -0.04640858       1.97058198      17.55952389  F       77       0.03929630       0.22538978       0.35471520
O       -5.55395094      11.67068958      17.55952349  F       78      -0.08921365      -0.44197929      -0.06083966
O        5.60035973      11.59030666      17.55952404  F       79      -0.17049545       0.03033725      -0.18821979
O       -1.59636239       9.38481418      18.47998804  T       80      -0.00020440      -0.00364289       0.00938022
O        1.67048814       9.27848669      18.49311102  T       81      -0.00641087       0.00238883      -0.00607032
O       -0.04644024       6.34994830      18.51741077  T       82       0.00896810       0.00843525      -0.00223255
O        3.40662280       6.09101358      18.68721029  T       83       0.01549692       0.00690532      -0.01446132
O       -3.73341881       6.66860631      18.68175372  T       84      -0.00142428      -0.00199859       0.01457439
O        0.33874578      12.48969869      18.68362748  T       85       0.00413492       0.00533053      -0.00153945
O        9.19610188       9.12059606      19.00920494  T       86      -0.00345746      -0.01044369       0.00199744
O        1.98903388       3.44674847      19.04712019  T       87       0.00881170      -0.01456940       0.00309306
O       10.56920869       0.08500879      18.97084348  T       88      -0.00854367      -0.00114179      -0.00737190
O        8.87830744       2.87092368      19.26455921  T       89       0.00874534      -0.00309148      -0.00028563
O        5.35116146       3.52324846      19.23707651  T       90       0.00940575       0.00828648       0.00262743
O        7.66156024       6.22312086      19.25460216  T       91       0.01133665      -0.00276464       0.00461578
In      -1.90564449       5.61960730      19.42875544  T       92      -0.00162917      -0.00062779       0.00261697
In      -1.54883338      11.43444629      19.49559009  T       93       0.00453870      -0.00243949      -0.00239333
In       6.98675021       1.93050174      19.22428503  T       94      -0.00598691      -0.00541404       0.00434846
In       3.40652585       8.25623505      19.48863733  T       95      -0.00201729      -0.01357575       0.00957510
In       5.51312411       5.63250467      19.22229618  T       96       0.00224645      -0.00023139      -0.00270039
In       9.40382862       5.03537201      19.22147203  T       97      -0.00565958       0.01564089      -0.00086206
In       0.00317843       8.42484685      19.79521060  T       98       0.00960513      -0.01140352      -0.00496765
In       3.70713175       2.01529781      19.43654339  T       99      -0.01662867       0.00099172       0.00389543
In      11.06114385       2.14576289      19.44452787  T      100      -0.00275707      -0.00997819       0.01129273
In       7.16895409       8.48764554      19.45742092  T      101      -0.00291531       0.00666216      -0.01168491
In      -5.47280543      11.31199212      19.80769095  T      102       0.00414739      -0.00006318      -0.00611264
In      -3.31561230       8.63483264      19.58416600  T      103      -0.01017799       0.00838894       0.00860907
In       0.29585313       2.02950552      19.79848042  T      104       0.00444570       0.02622096       0.01318239
In       1.57274920       5.45964936      19.59892114  T      105      -0.01441197      -0.00033110       0.00403406
In       1.82052979      11.17363689      19.58570928  T      106      -0.00477590      -0.00535388       0.00706847
In       5.23387673      11.65901159      19.68629664  T      107       0.00322483      -0.00546850      -0.00963706
O        2.03637205       0.80827985      19.72591414  T      108      -0.00970286       0.00114714       0.00527444
O        7.03403510      10.54905784      20.04214310  T      109       0.00198083      -0.00399227      -0.00540078
O       12.89635908       1.16762447      20.07869237  T      110       0.00914638       0.00028917      -0.01850310
O        5.37157466       7.55549009      20.10393604  T      111       0.00305977      -0.00420517      -0.00543845
O       11.18641986       4.18813178      20.06543541  T      112      -0.00015481       0.00361751      -0.00028038
O        5.38626915       0.88851707      20.11552403  T      113      -0.00361025      -0.00231761       0.00576133
O       -0.28443803       4.20359578      20.42997770  T      114       0.00038023       0.00025312      -0.01254100
O       -3.45298490      10.68343621      20.23658107  T      115       0.00228259       0.00081152       0.00282198
O        3.69729192      10.28256759      20.24981377  T      116      -0.00881028      -0.00613613      -0.00287122
O       -1.80130971       7.45116518      20.59493261  T      117      -0.01120080      -0.01011403      -0.00424302
O        0.08111336      10.44707080      20.61541420  T      118       0.00299810      -0.00322248       0.00375903
O        1.72292787       7.30565605      20.62525691  T      119      -0.00602368       0.00657192      -0.00442672
O        0.63768703       1.68367231      22.01321792  T        0      -0.00253135       0.02774549      -0.00718728
O        1.20770718      -0.54340090      21.96970634  T        0       0.00235935       0.00303870      -0.00268832
C        0.99078119       0.55972768      24.05881415  T        0      -0.00450971       0.00710571       0.00434040
C        0.95655104       0.55520832      22.53456409  T        0      -0.00994275       0.01749769      -0.01853430
H        1.56337846       1.41907930      24.42515182  T        0      -0.00048341       0.02209558      -0.01544026
H       -0.03497228       0.67640583      24.43233502  T        0      -0.00760598       0.01369317       0.01592422
H        1.40980131      -0.37557495      24.43997315  T        0       0.00408950      -0.00030057       0.00376010
H       -0.44382321       4.17911439      21.39440695  T        0       0.00919490       0.00007686      -0.01001120
