128
Lattice="14.567458257780915 0.0 0.0 -7.283729128890462 12.615788919807672 0.0 0.0 0.0 33.04905420593702" Properties=species:S:1:pos:R:3:move_mask:L:1:spacegroup_kinds:I:1:forces:R:3 spacegroup="P 1" unit_cell=conventional occupancy="_JSON {\"0\": {\"O\": 1.0}, \"1\": {\"O\": 1.0}, \"2\": {\"O\": 1.0}, \"3\": {\"O\": 1.0}, \"4\": {\"O\": 1.0}, \"5\": {\"O\": 1.0}, \"6\": {\"O\": 1.0}, \"7\": {\"O\": 1.0}, \"8\": {\"O\": 1.0}, \"9\": {\"O\": 1.0}, \"10\": {\"O\": 1.0}, \"11\": {\"O\": 1.0}, \"12\": {\"In\": 1.0}, \"13\": {\"In\": 1.0}, \"14\": {\"In\": 1.0}, \"15\": {\"In\": 1.0}, \"16\": {\"In\": 1.0}, \"17\": {\"In\": 1.0}, \"18\": {\"In\": 1.0}, \"19\": {\"In\": 1.0}, \"20\": {\"In\": 1.0}, \"21\": {\"In\": 1.0}, \"22\": {\"In\": 1.0}, \"23\": {\"In\": 1.0}, \"24\": {\"In\": 1.0}, \"25\": {\"In\": 1.0}, \"26\": {\"In\": 1.0}, \"27\": {\"In\": 1.0}, \"28\": {\"O\": 1.0}, \"29\": {\"O\": 1.0}, \"30\": {\"O\": 1.0}, \"31\": {\"O\": 1.0}, \"32\": {\"O\": 1.0}, \"33\": {\"O\": 1.0}, \"34\": {\"O\": 1.0}, \"35\": {\"O\": 1.0}, \"36\": {\"O\": 1.0}, \"37\": {\"O\": 1.0}, \"38\": {\"O\": 1.0}, \"39\": {\"O\": 1.0}, \"40\": {\"O\": 1.0}, \"41\": {\"O\": 1.0}, \"42\": {\"O\": 1.0}, \"43\": {\"O\": 1.0}, \"44\": {\"O\": 1.0}, \"45\": {\"O\": 1.0}, \"46\": {\"O\": 1.0}, \"47\": {\"O\": 1.0}, \"48\": {\"O\": 1.0}, \"49\": {\"O\": 1.0}, \"50\": {\"O\": 1.0}, \"51\": {\"O\": 1.0}, \"52\": {\"In\": 1.0}, \"53\": {\"In\": 1.0}, \"54\": {\"In\": 1.0}, \"55\": {\"In\": 1.0}, \"56\": {\"In\": 1.0}, \"57\": {\"In\": 1.0}, \"58\": {\"In\": 1.0}, \"59\": {\"In\": 1.0}, \"60\": {\"In\": 1.0}, \"61\": {\"In\": 1.0}, \"62\": {\"In\": 1.0}, \"63\": {\"In\": 1.0}, \"64\": {\"In\": 1.0}, \"65\": {\"In\": 1.0}, \"66\": {\"In\": 1.0}, \"67\": {\"In\": 1.0}, \"68\": {\"O\": 1.0}, \"69\": {\"O\": 1.0}, \"70\": {\"O\": 1.0}, \"71\": {\"O\": 1.0}, \"72\": {\"O\": 1.0}, \"73\": {\"O\": 1.0}, \"74\": {\"O\": 1.0}, \"75\": {\"O\": 1.0}, \"76\": {\"O\": 1.0}, \"77\": {\"O\": 1.0}, \"78\": {\"O\": 1.0}, \"79\": {\"O\": 1.0}, \"80\": {\"O\": 1.0}, \"81\": {\"O\": 1.0}, \"82\": {\"O\": 1.0}, \"83\": {\"O\": 1.0}, \"84\": {\"O\": 1.0}, \"85\": {\"O\": 1.0}, \"86\": {\"O\": 1.0}, \"87\": {\"O\": 1.0}, \"88\": {\"O\": 1.0}, \"89\": {\"O\": 1.0}, \"90\": {\"O\": 1.0}, \"91\": {\"O\": 1.0}, \"92\": {\"In\": 1.0}, \"93\": {\"In\": 1.0}, \"94\": {\"In\": 1.0}, \"95\": {\"In\": 1.0}, \"96\": {\"In\": 1.0}, \"97\": {\"In\": 1.0}, \"98\": {\"In\": 1.0}, \"99\": {\"In\": 1.0}, \"100\": {\"In\": 1.0}, \"101\": {\"In\": 1.0}, \"102\": {\"In\": 1.0}, \"103\": {\"In\": 1.0}, \"104\": {\"In\": 1.0}, \"105\": {\"In\": 1.0}, \"106\": {\"In\": 1.0}, \"107\": {\"In\": 1.0}, \"108\": {\"O\": 1.0}, \"109\": {\"O\": 1.0}, \"110\": {\"O\": 1.0}, \"111\": {\"O\": 1.0}, \"112\": {\"O\": 1.0}, \"113\": {\"O\": 1.0}, \"114\": {\"O\": 1.0}, \"115\": {\"O\": 1.0}, \"116\": {\"O\": 1.0}, \"117\": {\"O\": 1.0}, \"118\": {\"O\": 1.0}, \"119\": {\"O\": 1.0}}" energy=-707.2579345703125 free_energy=-707.2579345703125 stress="0.007487533614039421 0.00022163598623592407 1.7258935258723795e-05 0.00022163598623592407 0.007090001832693815 4.9642119847703725e-05 1.7258935258723795e-05 4.9642119847703725e-05 5.242557745077647e-05" pbc="T T T"
O        5.56112551       5.29730098      12.44442493  F        0      -0.00660034       0.01306188       0.01206243
O        7.19929797       2.16742567      12.44442488  F        1       0.00314924      -0.00731614       0.00262165
O        9.09076378       5.15106294      12.44442506  F        2       0.00278199       0.00403310       0.00700080
O        3.56236441       2.32744963      12.81467041  F        3       0.00775081      -0.00470352      -0.01445216
O       10.77064547       1.92137361      12.81467059  F        4      -0.00379494       0.00109661      -0.00909668
O        7.51817736       8.36696557      12.81467060  F        5      -0.01398876       0.00168166      -0.00094491
O       -3.86713652       8.43746206      12.95843886  F        6       0.02304111      -0.00992948       0.01157498
O        1.91024068       5.04801920      12.95843918  F        7       0.00379142       0.03972013       0.00806206
O        1.95689587      11.74609578      12.95843921  F        8      -0.00920606      -0.02476174       0.02230096
O       -5.62751792      11.43742505      12.90107995  F        9       0.01001623      -0.00003303      -0.00572973
O        0.19238766       2.02350350      12.90107932  F       10      -0.03036940       0.00667152      -0.01354694
O        5.43512990      11.77064967      12.90107909  F       11      -0.00544823      -0.04220208       0.00433946
In       2.02827288       0.93415595      13.34696164  F       12      -0.00187137       0.01740475       0.07153771
In       5.45297263       1.43044201      13.46548669  F       13      -0.01093281      -0.00264177      -0.01200323
In       5.79604177       7.17815473      13.46548635  F       14       0.01495245      -0.02199622      -0.04613264
In       7.07859496      10.39217548      13.34696140  F       15       0.02222091       0.00877524       0.01614068
In      10.60217256       4.00719198      13.46548647  F       16       0.00927170      -0.00136599      -0.02250656
In      12.74431985       1.28945811      13.34696112  F       17       0.00461344       0.00872310       0.04990819
In      -3.76992867      10.45841758      13.58493911  F       18      -0.00701439       0.01873738       0.01795913
In       0.11143913       4.12172609      13.58493797  F       19       0.01067433      -0.02218292       0.05621749
In       7.28372934       4.20526284      13.28077194  F       20      -0.00524089      -0.01171644      -0.00800490
In       3.65848992      10.65143468      13.58493907  F       21       0.00365580       0.02143134      -0.05316088
In      -2.12514371       7.57248039      13.82744761  F       22      -0.02960008       0.00311180      -0.03640318
In       1.78834112       6.98912009      13.82744861  F       23      -0.00895204      -0.05568364      -0.02541699
In       3.89762555       4.37439996      13.55369945  F       24       0.00475156      -0.03709377       0.00603362
In       0.33680320      10.66997741      13.82744770  F       25       0.00535466       0.03932273      -0.04624762
In       8.83030441       1.18824328      13.55369950  F       26      -0.00108966       0.01907228      -0.00488964
In       9.12325787       7.05314622      13.55369981  F       27      -0.00577691      -0.00328576      -0.00398926
O        1.94314284       9.09920259      13.79983277  F       28       0.01295599       0.02200460       0.03737837
O       -0.37515974       6.38337672      13.79983300  F       29       0.01030412       0.01560572       0.01134938
O       -1.56798334       9.74899853      13.79983313  F       30       0.00509965      -0.01476759       0.01069397
O       -1.90665604       3.49451490      14.07374983  F       31      -0.02590570       0.02152467      -0.01705059
O       -3.30406258      12.51974383      14.07375025  F       32       0.02510947      -0.01619238      -0.03207594
O        5.21071859       9.21731872      14.07374980  F       33      -0.02946547      -0.02170044       0.05984751
O        6.95268262       0.11029125      14.35625235  F       34       0.00697219      -0.01788870       0.01113261
O        3.90290295       6.53944318      14.35625252  F       35       0.01139535       0.05550379       0.07376453
O       10.99560128       5.96605484      14.35625280  F       36       0.00607878       0.00011551       0.02158798
O        5.60077915       3.29585311      14.56420047  F       37       0.01117180       0.03046255      -0.00423026
O        8.91277589       3.20249084      14.56420075  F       38      -0.01414113      -0.01147026       0.00651491
O        7.33763173       6.11744518      14.56420087  F       39       0.00668234       0.00397727       0.02183682
O        1.68336921       1.02548187      15.48953070  F       40       0.05203298      -0.03856532      -0.09296486
O       12.83768043       0.94510034      15.48953027  F       41      -0.10005329      -0.04339084      -0.06867439
O        7.33013789      10.64520717      15.48953039  F       42      -0.04051291      -0.04526037      -0.00957055
O       -3.87048772      10.25806959      15.75644575  F       43       0.05725124      -0.02985474      -0.01492187
O        0.33522381       4.13481358      15.75644581  F       44      -0.05128264       0.15345354      -0.07274751
O        3.53526358      10.83869431      15.75644572  F       45      -0.04721957      -0.11967413       0.06388431
O        9.24484356       0.74344663      15.94429150  F       46       0.00375280      -0.02743953      -0.00880371
O        3.30515102       4.23779662      15.94429168  F       47       0.05787981       0.15256481       0.01787469
O        9.30119327       7.63454631      15.94429132  F       48      -0.01969238       0.00135955      -0.00040960
O       -1.89390768       7.68105065      15.98554452  F       49       0.07690884      -0.03734598       0.07395789
O        1.57869822       7.13509120      15.98554413  F       50       0.09628597       0.09340302      -0.03133682
O        0.31520971      10.41543579      15.98554439  F       51       0.04865128      -0.06447539       0.09331372
In      -1.57901381       3.03754313      16.29163881  F       52       0.19983836      -0.15606982       0.15166032
In      -3.86363272      12.46448245      16.29163869  F       53      -0.08242963       0.09967192       0.02407576
In      -0.30746998       6.17668715      16.39885574  F       54       0.15222333      -0.05181252       0.15327297
In      -1.78082649       9.79372205      16.39885556  F       55      -0.08899992       0.06836466      -0.22326651
In       2.08829635       9.26116873      16.39885555  F       56      -0.17099202       0.02323765      -0.27953115
In       5.44264624       9.72955081      16.29163837  F       57       0.18622351       0.16460370      -0.11850833
In      14.56745775       0.00000023      16.52452729  F       58       0.07486466       0.22755674       0.11400858
In       7.28372884       0.00000046      16.52452727  F       59      -0.00643458       0.05706548      -0.03027814
In       3.64186448       6.30789445      16.52452688  F       60      -0.12738907      -0.26417106      -0.04368534
In      -3.64186467       6.30789479      16.52452729  F       61      -0.10032573       0.01651392      -0.09684460
In       9.06455585       2.82206686      16.65019864  F       62       0.01376289      -0.01852500       0.02313301
In       1.84108280       2.88623741      16.75741682  F       63      -0.18961808      -0.11545509       0.12138195
In       5.19543306       3.35462016      16.65019954  F       64      -0.07373472      -0.10399591      -0.03093445
In      11.14736129       0.15130547      16.75741597  F       65       0.03597777       0.08498394       0.00680067
In       7.59119877       6.43910216      16.65019924  F       66       0.04924986      -0.02485861      -0.04947357
In       8.86274257       9.57824538      16.75741545  F       67       0.03772041       0.08475290      -0.08930202
O        9.17763668       4.93473784      17.06350958  F       68      -0.02496687       0.04241887       0.00109258
O        6.96851909       2.20035367      17.06350993  F       69       0.00187813      -0.01816553      -0.01137121
O        5.70503103       5.48069763      17.06350990  F       70      -0.19104074       0.10151669       0.15007293
O       -2.01746347       4.98124236      17.10476289  F       71       0.08386485       0.26774448       0.08981530
O       -1.96111486      11.87234229      17.10476307  F       72       0.03866254      -0.03544039       0.07006219
O        3.97857827       8.37799246      17.10476382  F       73       0.06335783       0.04351556       0.07660624
O        6.94850543       8.48097521      17.29260816  F       74      -0.07275349      -0.02207226       0.06290901
O       11.15421650       2.35771879      17.29260829  F       75      -0.02220416       0.01653478      -0.00460788
O        3.74846506       1.77709453      17.29260778  F       76       0.18034580      -0.06101045      -0.17224830
O       -0.04640858       1.97058198      17.55952389  F       77      -0.03765257      -0.08296195       0.16553783
O       -5.55395094      11.67068958      17.55952349  F       78       0.02092060      -0.22564833      -0.18681999
O        5.60035973      11.59030666      17.55952404  F       79      -0.08213927      -0.10299712      -0.02533700
O       -1.66056474       9.42071851      18.47291829  T       80       0.00559421       0.01212321       0.00028139
O        1.69746113       9.29138028      18.49260936  T       81      -0.00384534      -0.00484056       0.01823974
O        0.05511477       6.55657721      18.50375216  T       82      -0.00889942      -0.00189345       0.01095760
O        3.33497878       6.14187160      18.73819126  T       83      -0.01033853      -0.00283775       0.00633614
O       -3.71393318       6.65222891      18.69131292  T       84      -0.00341558      -0.00473469      -0.00412174
O        0.33172806      12.49198947      18.69215471  T       85      -0.01318407       0.00837407      -0.01339683
O        9.19909055       9.10788691      18.97075570  T       86      -0.01119285       0.01365107       0.00310446
O        2.09058721       3.37391350      18.90863620  T       87       0.00349349      -0.00308087       0.00646761
O       10.58518413       0.09486463      18.97888240  T       88       0.00370574      -0.00135008       0.00725295
O        8.84906710       2.86200182      19.23521424  T       89      -0.00049859      -0.01873629       0.00963914
O        5.33672231       3.51999381      19.24658832  T       90      -0.00179919      -0.00863594       0.00110441
O        7.64565795       6.22991591      19.25158230  T       91       0.00162637      -0.00718701      -0.00126612
In      -1.86340611       5.56830664      19.43465393  T       92       0.00342058       0.00761238       0.00818843
In      -1.56460222      11.44547422      19.48942112  T       93      -0.00549736      -0.00008399      -0.00167435
In       6.94897577       1.94793257      19.21864555  T       94      -0.00806088      -0.00453275       0.00246151
In       3.48514300       8.30146090      19.38111990  T       95      -0.01479979       0.00589763       0.00382199
In       5.48101646       5.61675744      19.23229234  T       96      -0.00030478      -0.00831894       0.00160205
In       9.39064353       5.03088986      19.22291284  T       97      -0.00216790       0.01568852       0.00633886
In      -0.06748651       8.45060471      19.66462088  T       98       0.00918213      -0.00193506      -0.00124824
In       3.61985139       1.95178399      19.45556103  T       99      -0.00125353      -0.00860713      -0.00612165
In      11.08119233       2.16397839      19.46381293  T      100      -0.00427840       0.01110060      -0.01038039
In       7.19163428       8.48366565      19.46498895  T      101      -0.00041735      -0.01513394       0.00134799
In      -5.45279989      11.30789803      19.68947923  T      102       0.00231904      -0.00416055      -0.00692959
In      -3.33732438       8.60352352      19.60438368  T      103       0.02298630      -0.00853352       0.00460090
In       0.25258122       2.21899204      19.79837721  T      104       0.01350830      -0.00899047      -0.00090511
In       1.51754736       5.31912447      19.66416950  T      105       0.00158754      -0.00469768      -0.01207749
In       1.83380857      11.19738243      19.58645985  T      106      -0.01143835       0.00822925      -0.00145578
In       5.27617103      11.69801911      19.69760684  T      107       0.00212876       0.00195870       0.00143203
O        1.88259829       0.78314883      20.02400240  T      108       0.00877293       0.01008570      -0.00538573
O        7.09300027      10.57321927      20.14243921  T      109      -0.00901326      -0.01076994      -0.00323242
O       12.91809436       1.17186190      20.14558500  T      110       0.00601978      -0.00131306      -0.00266290
O        5.38240495       7.56389296      20.09607472  T      111      -0.00185835       0.00344754      -0.01270774
O       11.12662981       4.18625022      20.09056273  T      112      -0.00360051      -0.00920433       0.00949597
O        5.33650578       0.88014430      20.09222843  T      113      -0.00152172      -0.00417553       0.00812572
O       -0.33605746       4.25206853      20.00956448  T      114      -0.01614434      -0.00838993      -0.01271933
O       -3.47749590      10.67783368      20.25202011  T      115       0.00376961       0.00284688       0.00808299
O        3.73144482      10.28882166      20.22192746  T      116       0.01195769      -0.01454283       0.00523752
O       -1.79442058       7.46106756      20.58803285  T      117      -0.00303242      -0.00124868      -0.00117624
O        0.08170596      10.43212311      20.58147548  T      118       0.00476930      -0.00265062       0.00124514
O        1.72864743       7.43122319      20.65672773  T      119       0.00796485       0.00201782       0.00106716
O        1.12652654       2.74708577      21.93567940  T        0       0.00034654       0.00747287       0.00745150
O        2.15180105       4.78109257      21.72193170  T        0       0.00500837      -0.00906086       0.00569090
C        1.80938077       3.91937812      23.89474502  T        0       0.01349684       0.00531154      -0.00155178
C        1.66780542       3.78986059      22.38914530  T        0      -0.01625940       0.01498871       0.00003684
H        1.59414749       2.96810938      24.39043983  T        0       0.00257004       0.00351373      -0.01248072
H        2.81844802       4.27215058      24.14033558  T        0      -0.00510234      -0.00628180       0.00280614
H        1.10869738       4.68138941      24.26493045  T        0       0.00829524      -0.00377734      -0.00936709
H        1.80292754       7.35171214      21.62486498  T        0       0.00079191       0.02020736      -0.00336087
