128
Lattice="14.567458257780915 0.0 0.0 -7.283729128890462 12.615788919807672 0.0 0.0 0.0 33.04905420593702" Properties=species:S:1:pos:R:3:move_mask:L:1:spacegroup_kinds:I:1:forces:R:3 spacegroup="P 1" unit_cell=conventional occupancy="_JSON {\"0\": {\"O\": 1.0}, \"1\": {\"O\": 1.0}, \"2\": {\"O\": 1.0}, \"3\": {\"O\": 1.0}, \"4\": {\"O\": 1.0}, \"5\": {\"O\": 1.0}, \"6\": {\"O\": 1.0}, \"7\": {\"O\": 1.0}, \"8\": {\"O\": 1.0}, \"9\": {\"O\": 1.0}, \"10\": {\"O\": 1.0}, \"11\": {\"O\": 1.0}, \"12\": {\"In\": 1.0}, \"13\": {\"In\": 1.0}, \"14\": {\"In\": 1.0}, \"15\": {\"In\": 1.0}, \"16\": {\"In\": 1.0}, \"17\": {\"In\": 1.0}, \"18\": {\"In\": 1.0}, \"19\": {\"In\": 1.0}, \"20\": {\"In\": 1.0}, \"21\": {\"In\": 1.0}, \"22\": {\"In\": 1.0}, \"23\": {\"In\": 1.0}, \"24\": {\"In\": 1.0}, \"25\": {\"In\": 1.0}, \"26\": {\"In\": 1.0}, \"27\": {\"In\": 1.0}, \"28\": {\"O\": 1.0}, \"29\": {\"O\": 1.0}, \"30\": {\"O\": 1.0}, \"31\": {\"O\": 1.0}, \"32\": {\"O\": 1.0}, \"33\": {\"O\": 1.0}, \"34\": {\"O\": 1.0}, \"35\": {\"O\": 1.0}, \"36\": {\"O\": 1.0}, \"37\": {\"O\": 1.0}, \"38\": {\"O\": 1.0}, \"39\": {\"O\": 1.0}, \"40\": {\"O\": 1.0}, \"41\": {\"O\": 1.0}, \"42\": {\"O\": 1.0}, \"43\": {\"O\": 1.0}, \"44\": {\"O\": 1.0}, \"45\": {\"O\": 1.0}, \"46\": {\"O\": 1.0}, \"47\": {\"O\": 1.0}, \"48\": {\"O\": 1.0}, \"49\": {\"O\": 1.0}, \"50\": {\"O\": 1.0}, \"51\": {\"O\": 1.0}, \"52\": {\"In\": 1.0}, \"53\": {\"In\": 1.0}, \"54\": {\"In\": 1.0}, \"55\": {\"In\": 1.0}, \"56\": {\"In\": 1.0}, \"57\": {\"In\": 1.0}, \"58\": {\"In\": 1.0}, \"59\": {\"In\": 1.0}, \"60\": {\"In\": 1.0}, \"61\": {\"In\": 1.0}, \"62\": {\"In\": 1.0}, \"63\": {\"In\": 1.0}, \"64\": {\"In\": 1.0}, \"65\": {\"In\": 1.0}, \"66\": {\"In\": 1.0}, \"67\": {\"In\": 1.0}, \"68\": {\"O\": 1.0}, \"69\": {\"O\": 1.0}, \"70\": {\"O\": 1.0}, \"71\": {\"O\": 1.0}, \"72\": {\"O\": 1.0}, \"73\": {\"O\": 1.0}, \"74\": {\"O\": 1.0}, \"75\": {\"O\": 1.0}, \"76\": {\"O\": 1.0}, \"77\": {\"O\": 1.0}, \"78\": {\"O\": 1.0}, \"79\": {\"O\": 1.0}, \"80\": {\"O\": 1.0}, \"81\": {\"O\": 1.0}, \"82\": {\"O\": 1.0}, \"83\": {\"O\": 1.0}, \"84\": {\"O\": 1.0}, \"85\": {\"O\": 1.0}, \"86\": {\"O\": 1.0}, \"87\": {\"O\": 1.0}, \"88\": {\"O\": 1.0}, \"89\": {\"O\": 1.0}, \"90\": {\"O\": 1.0}, \"91\": {\"O\": 1.0}, \"92\": {\"In\": 1.0}, \"93\": {\"In\": 1.0}, \"94\": {\"In\": 1.0}, \"95\": {\"In\": 1.0}, \"96\": {\"In\": 1.0}, \"97\": {\"In\": 1.0}, \"98\": {\"In\": 1.0}, \"99\": {\"In\": 1.0}, \"100\": {\"In\": 1.0}, \"101\": {\"In\": 1.0}, \"102\": {\"In\": 1.0}, \"103\": {\"In\": 1.0}, \"104\": {\"In\": 1.0}, \"105\": {\"In\": 1.0}, \"106\": {\"In\": 1.0}, \"107\": {\"In\": 1.0}, \"108\": {\"O\": 1.0}, \"109\": {\"O\": 1.0}, \"110\": {\"O\": 1.0}, \"111\": {\"O\": 1.0}, \"112\": {\"O\": 1.0}, \"113\": {\"O\": 1.0}, \"114\": {\"O\": 1.0}, \"115\": {\"O\": 1.0}, \"116\": {\"O\": 1.0}, \"117\": {\"O\": 1.0}, \"118\": {\"O\": 1.0}, \"119\": {\"O\": 1.0}}" energy=-706.0704345703125 free_energy=-706.0704345703125 stress="0.007182622328400612 0.0002568473864812404 -2.8549289709189907e-05 0.0002568473864812404 0.00710048945620656 -4.489565617404878e-05 -2.8549289709189907e-05 -4.489565617404878e-05 7.574619303341024e-06" pbc="T T T"
O        5.56112551       5.29730098      12.44442493  F        0      -0.00461790       0.00968230       0.00719357
O        7.19929797       2.16742567      12.44442488  F        1       0.00791863      -0.00193512       0.00769901
O        9.09076378       5.15106294      12.44442506  F        2       0.01213533       0.00011865       0.01268947
O        3.56236441       2.32744963      12.81467041  F        3       0.00513157       0.00573402      -0.01575285
O       10.77064547       1.92137361      12.81467059  F        4       0.00464448       0.00894091       0.00029534
O        7.51817736       8.36696557      12.81467060  F        5      -0.00660314      -0.00802061      -0.01127839
O       -3.86713652       8.43746206      12.95843886  F        6       0.02547058      -0.02657527       0.01258910
O        1.91024068       5.04801920      12.95843918  F        7      -0.01688144       0.03019477       0.02607232
O        1.95689587      11.74609578      12.95843921  F        8      -0.01155885      -0.01741381       0.01195234
O       -5.62751792      11.43742505      12.90107995  F        9       0.01382820       0.00938714      -0.01677126
O        0.19238766       2.02350350      12.90107932  F       10      -0.04510463       0.02668016      -0.00090903
O        5.43512990      11.77064967      12.90107909  F       11      -0.00879814      -0.01334503       0.00196713
In       2.02827288       0.93415595      13.34696164  F       12       0.00966323      -0.00458292       0.08142527
In       5.45297263       1.43044201      13.46548669  F       13      -0.01944186      -0.01155613      -0.00641759
In       5.79604177       7.17815473      13.46548635  F       14       0.00388281       0.00451198      -0.03130066
In       7.07859496      10.39217548      13.34696140  F       15       0.02034563       0.00285612       0.06558823
In      10.60217256       4.00719198      13.46548647  F       16      -0.01813932      -0.00351067      -0.05376102
In      12.74431985       1.28945811      13.34696112  F       17      -0.00060716      -0.01925002       0.00107671
In      -3.76992867      10.45841758      13.58493911  F       18      -0.01846769       0.01842967       0.05558293
In       0.11143913       4.12172609      13.58493797  F       19       0.02264152      -0.02450723      -0.03410053
In       7.28372934       4.20526284      13.28077194  F       20      -0.01963821      -0.00047297      -0.00989627
In       3.65848992      10.65143468      13.58493907  F       21       0.01799743       0.00323517      -0.00908309
In      -2.12514371       7.57248039      13.82744761  F       22      -0.03917916       0.03558081      -0.06387529
In       1.78834112       6.98912009      13.82744861  F       23       0.02573770      -0.03329526      -0.08086413
In       3.89762555       4.37439996      13.55369945  F       24       0.01891156      -0.02607787      -0.01340057
In       0.33680320      10.66997741      13.82744770  F       25       0.01293211       0.02620013      -0.00417753
In       8.83030441       1.18824328      13.55369950  F       26      -0.00716433       0.00327317      -0.01046102
In       9.12325787       7.05314622      13.55369981  F       27      -0.02858473       0.01272932      -0.01685348
O        1.94314284       9.09920259      13.79983277  F       28      -0.00357888      -0.00637269       0.01960886
O       -0.37515974       6.38337672      13.79983300  F       29       0.01618710      -0.00968909       0.04214662
O       -1.56798334       9.74899853      13.79983313  F       30       0.00407255      -0.03473616      -0.00149965
O       -1.90665604       3.49451490      14.07374983  F       31      -0.00911865       0.02378178       0.06532151
O       -3.30406258      12.51974383      14.07375025  F       32       0.02816072      -0.00399032      -0.03754398
O        5.21071859       9.21731872      14.07374980  F       33      -0.02838013      -0.01788360      -0.01894639
O        6.95268262       0.11029125      14.35625235  F       34       0.01134357       0.00246613       0.00891847
O        3.90290295       6.53944318      14.35625252  F       35      -0.02549631       0.01166314       0.02735079
O       10.99560128       5.96605484      14.35625280  F       36       0.02193040      -0.01967603       0.05033176
O        5.60077915       3.29585311      14.56420047  F       37       0.00678930       0.03572521       0.00504118
O        8.91277589       3.20249084      14.56420075  F       38       0.00482258      -0.00718138       0.03420830
O        7.33763173       6.11744518      14.56420087  F       39       0.02742891      -0.00875533       0.01230496
O        1.68336921       1.02548187      15.48953070  F       40      -0.06720693       0.10437291      -0.09095158
O       12.83768043       0.94510034      15.48953027  F       41      -0.04082369       0.04109823       0.02858721
O        7.33013789      10.64520717      15.48953039  F       42      -0.12483827      -0.04971248      -0.11037353
O       -3.87048772      10.25806959      15.75644575  F       43       0.16531946      -0.09884089      -0.07967632
O        0.33522381       4.13481358      15.75644581  F       44      -0.05034894       0.04964565       0.04081938
O        3.53526358      10.83869431      15.75644572  F       45      -0.02945369      -0.01493341       0.02194724
O        9.24484356       0.74344663      15.94429150  F       46       0.07417859       0.04439649       0.00237159
O        3.30515102       4.23779662      15.94429168  F       47      -0.09342945       0.08742877       0.07085858
O        9.30119327       7.63454631      15.94429132  F       48       0.01513533      -0.02735087       0.03550737
O       -1.89390768       7.68105065      15.98554452  F       49       0.09357357      -0.16053650       0.10763528
O        1.57869822       7.13509120      15.98554413  F       50      -0.11495128      -0.03321063       0.17512965
O        0.31520971      10.41543579      15.98554439  F       51       0.03882717      -0.05468312      -0.00432093
In      -1.57901381       3.03754313      16.29163881  F       52       0.05429154      -0.15230523      -0.18020120
In      -3.86363272      12.46448245      16.29163869  F       53      -0.21794483       0.08182082       0.31784761
In      -0.30746998       6.17668715      16.39885574  F       54       0.13293493      -0.03815898      -0.20273800
In      -1.78082649       9.79372205      16.39885556  F       55      -0.01377794       0.08342335      -0.06519365
In       2.08829635       9.26116873      16.39885555  F       56      -0.02696694       0.06607421      -0.01772729
In       5.44264624       9.72955081      16.29163837  F       57       0.09097937       0.03385216      -0.05236755
In      14.56745775       0.00000023      16.52452729  F       58       0.33238310      -0.18689206       0.12127419
In       7.28372884       0.00000046      16.52452727  F       59      -0.00053969      -0.01133865      -0.08634280
In       3.64186448       6.30789445      16.52452688  F       60       0.11115569      -0.02998012      -0.15641694
In      -3.64186467       6.30789479      16.52452729  F       61      -0.19239111       0.11055287      -0.33199105
In       9.06455585       2.82206686      16.65019864  F       62      -0.08679359      -0.04014403      -0.16437781
In       1.84108280       2.88623741      16.75741682  F       63       0.20089068      -0.22930811       0.06934624
In       5.19543306       3.35462016      16.65019954  F       64      -0.13604653      -0.15706429       0.08581696
In      11.14736129       0.15130547      16.75741597  F       65       0.01816544      -0.06999940      -0.06320295
In       7.59119877       6.43910216      16.65019924  F       66      -0.03952096       0.06543675      -0.06898232
In       8.86274257       9.57824538      16.75741545  F       67       0.02104165       0.33333677       0.20160121
O        9.17763668       4.93473784      17.06350958  F       68       0.05121929      -0.02949390       0.06668056
O        6.96851909       2.20035367      17.06350993  F       69       0.13336320       0.05583048       0.02996142
O        5.70503103       5.48069763      17.06350990  F       70       0.05757803       0.01901535       0.00644647
O       -2.01746347       4.98124236      17.10476289  F       71      -0.06823190       0.06711099       0.13940355
O       -1.96111486      11.87234229      17.10476307  F       72       0.14384222      -0.12751564       0.02521746
O        3.97857827       8.37799246      17.10476382  F       73      -0.00946051       0.03939441       0.02931449
O        6.94850543       8.48097521      17.29260816  F       74       0.02587900      -0.05291256       0.05574801
O       11.15421650       2.35771879      17.29260829  F       75       0.00750887       0.07419243       0.04959048
O        3.74846506       1.77709453      17.29260778  F       76      -0.05614686       0.41887879       0.30514452
O       -0.04640858       1.97058198      17.55952389  F       77      -0.37945622       0.38655064      -0.31022039
O       -5.55395094      11.67068958      17.55952349  F       78      -0.01378660      -0.58389640      -0.18947898
O        5.60035973      11.59030666      17.55952404  F       79      -0.07836474       0.04853609       0.00099592
O       -1.56166925       9.36790465      18.47080731  T       80      -0.00694546       0.00012869      -0.00379682
O        1.68599684       9.29027945      18.49343963  T       81      -0.00320654      -0.00630049       0.00654888
O       -0.04470532       6.33960976      18.52409164  T       82       0.00794476       0.00000593      -0.01894099
O        3.42070343       6.10739658      18.69024849  T       83       0.00975411       0.00697574      -0.00152296
O       -3.73310861       6.68162020      18.67695482  T       84      -0.01188719      -0.00673769       0.00992280
O        0.37832243      12.50153911      18.67061024  T       85       0.00154960      -0.00067721       0.00393970
O        9.19418144       9.12717144      19.01665988  T       86      -0.00021058       0.00059330      -0.00466487
O        1.95001322       3.47701936      19.02672889  T       87       0.01821646      -0.00925893       0.00081569
O       10.61100500       0.10036241      18.98957421  T       88      -0.00598758      -0.01969337      -0.01122727
O        8.86278459       2.87739270      19.27229304  T       89      -0.00533399      -0.00922970       0.00092024
O        5.30992600       3.52121935      19.24042459  T       90       0.01172452      -0.00123489       0.01196569
O        7.66657126       6.23281612      19.25576037  T       91      -0.00089696      -0.00367361      -0.00060278
In      -1.91332858       5.64451335      19.42545728  T       92      -0.00289668      -0.01330370       0.01298695
In      -1.51337779      11.43553250      19.45646537  T       93       0.00373075      -0.00603923       0.01330028
In       6.94679579       1.94724992      19.21519234  T       94      -0.01153287       0.00441976      -0.00227322
In       3.42440059       8.26847300      19.47645729  T       95       0.01217439      -0.00463716       0.00572648
In       5.52407165       5.62705020      19.22456624  T       96       0.00857959      -0.00565664       0.01343645
In       9.39835407       5.04231204      19.22187971  T       97      -0.00582369       0.00178485       0.01013394
In       0.01841619       8.43686287      19.79944657  T       98      -0.01134086      -0.00148483       0.00201175
In       3.61119255       1.98458286      19.57181462  T       99       0.01186038      -0.00981589       0.00395258
In      11.02874572       2.15967887      19.45382389  T      100       0.00207274       0.00498709       0.01620819
In       7.17930329       8.52200065      19.46902860  T      101      -0.00657688      -0.00866966      -0.00165240
In      -5.42104001      11.34451938      19.80540986  T      102      -0.00456195       0.01371153      -0.00325096
In      -3.30257616       8.64035583      19.57198854  T      103       0.00029117      -0.02521647      -0.01523884
In       0.19977114       2.14687022      19.66827642  T      104      -0.00804488      -0.01770191      -0.01017427
In       1.59276519       5.48516991      19.60161069  T      105       0.00507160       0.01148944       0.01138937
In       1.84389478      11.18539213      19.58477575  T      106       0.01589569      -0.00493363      -0.00334065
In       5.27205173      11.68041638      19.69695850  T      107      -0.00914940       0.00466692       0.01205228
O        1.78469906       0.82880782      19.59488570  T      108       0.00458631      -0.01023806       0.01777249
O        7.09477623      10.61019784      20.14239210  T      109      -0.00291330      -0.00052103       0.00559103
O       12.90093240       1.21878393      20.17410924  T      110       0.02023776       0.00662173       0.00212416
O        5.39123571       7.57154568      20.08917622  T      111      -0.00315620       0.00478536       0.00401336
O       11.18997052       4.20052227      20.05888053  T      112      -0.00036586       0.01586153      -0.00452572
O        5.36516567       0.85145460      20.03019271  T      113       0.00270458       0.00616840       0.00483802
O       -0.28383479       4.21614215      20.49471796  T      114      -0.00286153       0.00243700      -0.00593388
O       -3.41659208      10.68263999      20.17028613  T      115      -0.01339339       0.01786344      -0.00681585
O        3.72899837      10.29296665      20.23010999  T      116       0.00870970       0.01338516       0.00424480
O       -1.79456728       7.45939889      20.60042466  T      117      -0.00463867       0.00286570      -0.01282328
O        0.10190547      10.46068787      20.61102479  T      118      -0.01471668       0.00136434       0.00067270
O        1.73370336       7.32677801      20.62633344  T      119       0.00749534      -0.01371107       0.00080520
O        2.24137966      -0.26701840      21.99056869  T        0       0.01952487       0.01890963      -0.00048670
O        3.09579641       1.87082801      21.79179549  T        0       0.00773853      -0.00385672      -0.00233206
C        2.97587577       0.84740811      23.93044063  T        0       0.00312648      -0.00299698       0.00640433
C        2.75365920       0.80393446      22.42066088  T        0       0.01067901       0.01303267       0.00531268
H        2.01244363       0.75385553      24.44809661  T        0      -0.00371227      -0.00340643      -0.01979038
H        3.57921699      -0.01723516      24.23296267  T        0       0.00461341      -0.00005650       0.01009820
H        3.46946335       1.77677969      24.22920705  T        0      -0.00091273      -0.00509270       0.01125620
H       -0.50266832       4.21239479      21.44657849  T        0       0.00438270       0.00705117      -0.00420427
