128
Lattice="14.567458257780915 0.0 0.0 -7.283729128890462 12.615788919807672 0.0 0.0 0.0 33.04905420593702" Properties=species:S:1:pos:R:3:move_mask:L:1:spacegroup_kinds:I:1:forces:R:3 spacegroup="P 1" unit_cell=conventional occupancy="_JSON {\"0\": {\"O\": 1.0}, \"1\": {\"O\": 1.0}, \"2\": {\"O\": 1.0}, \"3\": {\"O\": 1.0}, \"4\": {\"O\": 1.0}, \"5\": {\"O\": 1.0}, \"6\": {\"O\": 1.0}, \"7\": {\"O\": 1.0}, \"8\": {\"O\": 1.0}, \"9\": {\"O\": 1.0}, \"10\": {\"O\": 1.0}, \"11\": {\"O\": 1.0}, \"12\": {\"In\": 1.0}, \"13\": {\"In\": 1.0}, \"14\": {\"In\": 1.0}, \"15\": {\"In\": 1.0}, \"16\": {\"In\": 1.0}, \"17\": {\"In\": 1.0}, \"18\": {\"In\": 1.0}, \"19\": {\"In\": 1.0}, \"20\": {\"In\": 1.0}, \"21\": {\"In\": 1.0}, \"22\": {\"In\": 1.0}, \"23\": {\"In\": 1.0}, \"24\": {\"In\": 1.0}, \"25\": {\"In\": 1.0}, \"26\": {\"In\": 1.0}, \"27\": {\"In\": 1.0}, \"28\": {\"O\": 1.0}, \"29\": {\"O\": 1.0}, \"30\": {\"O\": 1.0}, \"31\": {\"O\": 1.0}, \"32\": {\"O\": 1.0}, \"33\": {\"O\": 1.0}, \"34\": {\"O\": 1.0}, \"35\": {\"O\": 1.0}, \"36\": {\"O\": 1.0}, \"37\": {\"O\": 1.0}, \"38\": {\"O\": 1.0}, \"39\": {\"O\": 1.0}, \"40\": {\"O\": 1.0}, \"41\": {\"O\": 1.0}, \"42\": {\"O\": 1.0}, \"43\": {\"O\": 1.0}, \"44\": {\"O\": 1.0}, \"45\": {\"O\": 1.0}, \"46\": {\"O\": 1.0}, \"47\": {\"O\": 1.0}, \"48\": {\"O\": 1.0}, \"49\": {\"O\": 1.0}, \"50\": {\"O\": 1.0}, \"51\": {\"O\": 1.0}, \"52\": {\"In\": 1.0}, \"53\": {\"In\": 1.0}, \"54\": {\"In\": 1.0}, \"55\": {\"In\": 1.0}, \"56\": {\"In\": 1.0}, \"57\": {\"In\": 1.0}, \"58\": {\"In\": 1.0}, \"59\": {\"In\": 1.0}, \"60\": {\"In\": 1.0}, \"61\": {\"In\": 1.0}, \"62\": {\"In\": 1.0}, \"63\": {\"In\": 1.0}, \"64\": {\"In\": 1.0}, \"65\": {\"In\": 1.0}, \"66\": {\"In\": 1.0}, \"67\": {\"In\": 1.0}, \"68\": {\"O\": 1.0}, \"69\": {\"O\": 1.0}, \"70\": {\"O\": 1.0}, \"71\": {\"O\": 1.0}, \"72\": {\"O\": 1.0}, \"73\": {\"O\": 1.0}, \"74\": {\"O\": 1.0}, \"75\": {\"O\": 1.0}, \"76\": {\"O\": 1.0}, \"77\": {\"O\": 1.0}, \"78\": {\"O\": 1.0}, \"79\": {\"O\": 1.0}, \"80\": {\"O\": 1.0}, \"81\": {\"O\": 1.0}, \"82\": {\"O\": 1.0}, \"83\": {\"O\": 1.0}, \"84\": {\"O\": 1.0}, \"85\": {\"O\": 1.0}, \"86\": {\"O\": 1.0}, \"87\": {\"O\": 1.0}, \"88\": {\"O\": 1.0}, \"89\": {\"O\": 1.0}, \"90\": {\"O\": 1.0}, \"91\": {\"O\": 1.0}, \"92\": {\"In\": 1.0}, \"93\": {\"In\": 1.0}, \"94\": {\"In\": 1.0}, \"95\": {\"In\": 1.0}, \"96\": {\"In\": 1.0}, \"97\": {\"In\": 1.0}, \"98\": {\"In\": 1.0}, \"99\": {\"In\": 1.0}, \"100\": {\"In\": 1.0}, \"101\": {\"In\": 1.0}, \"102\": {\"In\": 1.0}, \"103\": {\"In\": 1.0}, \"104\": {\"In\": 1.0}, \"105\": {\"In\": 1.0}, \"106\": {\"In\": 1.0}, \"107\": {\"In\": 1.0}, \"108\": {\"O\": 1.0}, \"109\": {\"O\": 1.0}, \"110\": {\"O\": 1.0}, \"111\": {\"O\": 1.0}, \"112\": {\"O\": 1.0}, \"113\": {\"O\": 1.0}, \"114\": {\"O\": 1.0}, \"115\": {\"O\": 1.0}, \"116\": {\"O\": 1.0}, \"117\": {\"O\": 1.0}, \"118\": {\"O\": 1.0}, \"119\": {\"O\": 1.0}}" energy=-706.8114013671875 free_energy=-706.8114013671875 stress="0.00728429201990366 -7.406238000839949e-05 5.73102843191009e-05 -7.406238000839949e-05 0.006552509963512421 1.026371683110483e-05 5.73102843191009e-05 1.026371683110483e-05 5.036163565819152e-05" pbc="T T T"
O        5.56112551       5.29730098      12.44442493  F        0      -0.01406267       0.00471355       0.00356019
O        7.19929797       2.16742567      12.44442488  F        1      -0.00601726      -0.00700244      -0.00201380
O        9.09076378       5.15106294      12.44442506  F        2       0.01256570       0.00601773       0.00471425
O        3.56236441       2.32744963      12.81467041  F        3      -0.00882545      -0.00630190      -0.00806463
O       10.77064547       1.92137361      12.81467059  F        4       0.02199158       0.00371674      -0.00759143
O        7.51817736       8.36696557      12.81467060  F        5      -0.00673340       0.01257229      -0.00842023
O       -3.86713652       8.43746206      12.95843886  F        6       0.02949353      -0.00644453       0.01712549
O        1.91024068       5.04801920      12.95843918  F        7      -0.01805714       0.01943731       0.02614844
O        1.95689587      11.74609578      12.95843921  F        8      -0.01295885      -0.02383120       0.01093864
O       -5.62751792      11.43742505      12.90107995  F        9       0.01397210       0.01726910       0.00432873
O        0.19238766       2.02350350      12.90107932  F       10      -0.01680054       0.01460355       0.01349419
O        5.43512990      11.77064967      12.90107909  F       11       0.00590650      -0.01414207       0.00189954
In       2.02827288       0.93415595      13.34696164  F       12       0.01548168      -0.00034521       0.00277507
In       5.45297263       1.43044201      13.46548669  F       13       0.01572622       0.00177184      -0.01427121
In       5.79604177       7.17815473      13.46548635  F       14       0.01565974      -0.01047704      -0.01369087
In       7.07859496      10.39217548      13.34696140  F       15       0.00336847      -0.01772211       0.01135162
In      10.60217256       4.00719198      13.46548647  F       16      -0.04354122      -0.00278112      -0.01648612
In      12.74431985       1.28945811      13.34696112  F       17      -0.01855034      -0.01335365       0.00601965
In      -3.76992867      10.45841758      13.58493911  F       18      -0.00854862       0.00345426      -0.01038173
In       0.11143913       4.12172609      13.58493797  F       19       0.00301086      -0.01053836      -0.06631385
In       7.28372934       4.20526284      13.28077194  F       20       0.01144649       0.00523612       0.01374718
In       3.65848992      10.65143468      13.58493907  F       21       0.00917956       0.00427230       0.00636274
In      -2.12514371       7.57248039      13.82744761  F       22      -0.05892840       0.01809569      -0.04876478
In       1.78834112       6.98912009      13.82744861  F       23       0.02870689      -0.03055385      -0.08411780
In       3.89762555       4.37439996      13.55369945  F       24       0.03120133      -0.01098668      -0.00481743
In       0.33680320      10.66997741      13.82744770  F       25       0.02014599       0.04163368      -0.01618710
In       8.83030441       1.18824328      13.55369950  F       26      -0.00032336       0.02551901       0.02143329
In       9.12325787       7.05314622      13.55369981  F       27      -0.02860547      -0.01243798      -0.00510094
O        1.94314284       9.09920259      13.79983277  F       28      -0.00960251      -0.01409751       0.02673700
O       -0.37515974       6.38337672      13.79983300  F       29       0.01604980      -0.01218444       0.05650353
O       -1.56798334       9.74899853      13.79983313  F       30      -0.01004195      -0.02367058       0.02090478
O       -1.90665604       3.49451490      14.07374983  F       31       0.01803890       0.02700275       0.05606775
O       -3.30406258      12.51974383      14.07375025  F       32      -0.00076598      -0.00240555      -0.00263806
O        5.21071859       9.21731872      14.07374980  F       33      -0.01069885      -0.00194779      -0.00969142
O        6.95268262       0.11029125      14.35625235  F       34      -0.00721598      -0.00999187      -0.00403652
O        3.90290295       6.53944318      14.35625252  F       35      -0.03899619       0.01371032       0.01938193
O       10.99560128       5.96605484      14.35625280  F       36       0.05773520      -0.00484943       0.03879883
O        5.60077915       3.29585311      14.56420047  F       37      -0.02257261       0.01490621      -0.01300907
O        8.91277589       3.20249084      14.56420075  F       38      -0.00856145      -0.02453506      -0.03084677
O        7.33763173       6.11744518      14.56420087  F       39       0.00793651       0.00129263      -0.02670008
O        1.68336921       1.02548187      15.48953070  F       40       0.00215997       0.01804274       0.01706317
O       12.83768043       0.94510034      15.48953027  F       41       0.03801129       0.00615205      -0.00426878
O        7.33013789      10.64520717      15.48953039  F       42       0.01387905       0.01527951      -0.01056996
O       -3.87048772      10.25806959      15.75644575  F       43       0.03477494      -0.02170992       0.02619148
O        0.33522381       4.13481358      15.75644581  F       44      -0.04173663       0.11800350       0.07456751
O        3.53526358      10.83869431      15.75644572  F       45      -0.01914784      -0.02970508       0.00282447
O        9.24484356       0.74344663      15.94429150  F       46      -0.00030409      -0.00292239      -0.02529997
O        3.30515102       4.23779662      15.94429168  F       47      -0.05141884       0.00357800      -0.01757529
O        9.30119327       7.63454631      15.94429132  F       48       0.12475462       0.00789341       0.05100162
O       -1.89390768       7.68105065      15.98554452  F       49       0.05476537      -0.07844703       0.04493237
O        1.57869822       7.13509120      15.98554413  F       50      -0.17668653      -0.06691336       0.19091792
O        0.31520971      10.41543579      15.98554439  F       51      -0.01315941      -0.06719685       0.02668668
In      -1.57901381       3.03754313      16.29163881  F       52      -0.09272740      -0.18003526      -0.05811635
In      -3.86363272      12.46448245      16.29163869  F       53       0.01677766       0.01549178       0.00864195
In      -0.30746998       6.17668715      16.39885574  F       54      -0.02877539       0.16067511       0.07354472
In      -1.78082649       9.79372205      16.39885556  F       55       0.04599091       0.03678640      -0.00155683
In       2.08829635       9.26116873      16.39885555  F       56       0.02785239       0.07681672      -0.08860614
In       5.44264624       9.72955081      16.29163837  F       57       0.07423161      -0.02039095      -0.00560998
In      14.56745775       0.00000023      16.52452729  F       58      -0.01830610      -0.02948574      -0.05197825
In       7.28372884       0.00000046      16.52452727  F       59       0.02619284       0.09516717      -0.03395312
In       3.64186448       6.30789445      16.52452688  F       60       0.10901390      -0.07060429      -0.04003893
In      -3.64186467       6.30789479      16.52452729  F       61      -0.21653931       0.00019765       0.17747590
In       9.06455585       2.82206686      16.65019864  F       62      -0.00382981       0.19579932       0.11279130
In       1.84108280       2.88623741      16.75741682  F       63       0.06337333      -0.00702536      -0.00434667
In       5.19543306       3.35462016      16.65019954  F       64       0.06732538       0.03895202      -0.01957111
In      11.14736129       0.15130547      16.75741597  F       65       0.02588319      -0.03532229      -0.26104814
In       7.59119877       6.43910216      16.65019924  F       66       0.06819300      -0.11980376       0.18602084
In       8.86274257       9.57824538      16.75741545  F       67      -0.07161850      -0.01172447      -0.10174439
O        9.17763668       4.93473784      17.06350958  F       68       0.32348841       0.19436793       0.40462813
O        6.96851909       2.20035367      17.06350993  F       69      -0.03197798       0.04124036      -0.03920452
O        5.70503103       5.48069763      17.06350990  F       70      -0.25986940      -0.06646533      -0.15924029
O       -2.01746347       4.98124236      17.10476289  F       71       0.18591137      -0.09390624      -0.12043084
O       -1.96111486      11.87234229      17.10476307  F       72      -0.01040970      -0.06836084       0.05290546
O        3.97857827       8.37799246      17.10476382  F       73      -0.04068539       0.01092022       0.05223653
O        6.94850543       8.48097521      17.29260816  F       74      -0.07628128       0.18692282      -0.09540681
O       11.15421650       2.35771879      17.29260829  F       75      -0.00236662      -0.23205547      -0.27449676
O        3.74846506       1.77709453      17.29260778  F       76      -0.02287990       0.00905371       0.02822817
O       -0.04640858       1.97058198      17.55952389  F       77      -0.01715252       0.04756065      -0.02809232
O       -5.55395094      11.67068958      17.55952349  F       78      -0.04604772       0.03579842      -0.07630743
O        5.60035973      11.59030666      17.55952404  F       79       0.02862090      -0.02842798      -0.00784895
O       -1.60128986       9.40412497      18.49262868  T       80      -0.00637068       0.00702715      -0.01885420
O        1.69259429       9.32694745      18.48473040  T       81       0.00827947       0.00352973      -0.00803584
O       -0.16292097       6.53174817      18.55732046  T       82      -0.00139276      -0.00731359      -0.01124847
O        3.35493169       6.09484716      18.69234122  T       83       0.00039037       0.01035246      -0.00705574
O       -3.55164789       6.68203064      18.73831657  T       84      -0.00564669      -0.00543335      -0.00501919
O        0.33072366      12.51721560      18.68131427  T       85       0.00412256       0.00494021       0.00393581
O        9.19517913       9.11392419      18.95651441  T       86       0.00613178      -0.01421165       0.00318764
O        2.06417418       3.42076676      18.96609411  T       87      -0.00581682      -0.00079373       0.00382063
O       10.58333105       0.04591092      18.94936853  T       88       0.01059794       0.01061788      -0.00488828
O        8.82064529       2.88391787      19.27142243  T       89       0.01556921      -0.00050031       0.01391745
O        5.32205786       3.53094443      19.24789806  T       90       0.00067785      -0.00422150      -0.00512767
O        7.63829147       6.26159628      19.10210363  T       91      -0.00736353      -0.00085089       0.00499368
In      -1.86403108       5.37080496      19.39484417  T       92       0.01578507       0.01813253      -0.00190626
In      -1.53489950      11.46690264      19.48122879  T       93       0.00213355      -0.00528811       0.00758219
In       6.94146311       1.96525090      19.22576727  T       94       0.00031643      -0.00736277      -0.01315482
In       3.40238023       8.24551117      19.48940981  T       95       0.00407419      -0.01917508       0.01195931
In       5.49298980       5.63363646      19.20893176  T       96      -0.00197602       0.00295274      -0.00018325
In       9.40331318       5.09079927      19.32837159  T       97       0.00813772      -0.01013150       0.00756004
In       0.04961327       8.49550308      19.76135065  T       98      -0.00023974      -0.00766993      -0.00256120
In       3.62346129       1.98637159      19.46211635  T       99       0.00379600      -0.00565560       0.00509684
In      11.00860323       2.05562467      19.43676772  T      100      -0.01409265      -0.00279161      -0.01238838
In       7.18304824       8.46146074      19.45493052  T      101      -0.00300294      -0.00249483      -0.00134057
In      -5.47721955      11.35722280      19.69107667  T      102      -0.01847290       0.00412837       0.00067896
In      -3.35005506       8.68421407      19.55295379  T      103      -0.00991527       0.01277074       0.00971344
In       0.19961888       2.20508218      19.69714680  T      104      -0.00085656      -0.00175288       0.00953978
In       1.47512668       5.45281613      19.59427449  T      105      -0.00590044      -0.00160896       0.00390451
In       1.84568005      11.20553917      19.59090555  T      106      -0.02062834      -0.00416554       0.00994805
In       5.28340975      11.64227486      19.70361759  T      107      -0.00107297      -0.00332474       0.00156459
O        1.84569547       0.86744904      20.15157910  T      108       0.00317602       0.00379980      -0.00273502
O        7.11503142      10.56175678      20.14734483  T      109      -0.01227045      -0.00110631       0.00219727
O       12.91223434       1.13232874      20.13647611  T      110      -0.00693563      -0.00370362       0.00185174
O        5.37470589       7.55344916      20.10903981  T      111       0.00483985      -0.00065099       0.00712371
O       11.17878440       4.03151347      19.85494241  T      112      -0.01684318       0.01196572      -0.00023842
O        5.32824590       0.89779785      20.09575704  T      113      -0.00101025      -0.01519951      -0.00681353
O       -0.22917796       4.23857112      20.23613443  T      114       0.00772064       0.00232773      -0.00683773
O       -3.49792949      10.77245140      20.14989331  T      115       0.00864890      -0.01269594      -0.00289708
O        3.73313562      10.27785666      20.24050071  T      116      -0.00740308      -0.00571772       0.00470710
O       -1.78547745       8.14911303      20.91489113  T      117      -0.01513854      -0.00564015       0.02329963
O        0.11783817      10.51645609      20.60659026  T      118       0.00348571       0.01072931      -0.01469827
O        1.70485788       7.33863113      20.60047368  T      119      -0.00152614      -0.01771517       0.00984377
O       11.85224085       5.85437028      21.72240445  T        0       0.00297868       0.00525749       0.00494435
O        9.57956769       5.78887817      21.47605444  T        0       0.00553864      -0.02295827      -0.00304472
C       10.54057849       5.38105558      23.62534877  T        0      -0.00550063       0.00380815       0.00309765
C       10.66674710       5.69091423      22.14597348  T        0       0.00400281      -0.00927532       0.00061464
H       11.20169150       4.54090933      23.87266967  T        0      -0.00797554       0.01138621       0.01609204
H       10.88979108       6.24332660      24.21085813  T        0      -0.00595075      -0.00537472      -0.00250337
H        9.50411603       5.14687389      23.88488932  T        0      -0.00354344       0.00150028       0.00291050
H       12.58721168       7.37618643      21.49618787  T        0      -0.01004553       0.02073770      -0.01704985
