128
Lattice="14.567458257780915 0.0 0.0 -7.283729128890462 12.615788919807672 0.0 0.0 0.0 33.04905420593702" Properties=species:S:1:pos:R:3:move_mask:L:1:spacegroup_kinds:I:1:forces:R:3 spacegroup="P 1" unit_cell=conventional occupancy="_JSON {\"0\": {\"O\": 1.0}, \"1\": {\"O\": 1.0}, \"2\": {\"O\": 1.0}, \"3\": {\"O\": 1.0}, \"4\": {\"O\": 1.0}, \"5\": {\"O\": 1.0}, \"6\": {\"O\": 1.0}, \"7\": {\"O\": 1.0}, \"8\": {\"O\": 1.0}, \"9\": {\"O\": 1.0}, \"10\": {\"O\": 1.0}, \"11\": {\"O\": 1.0}, \"12\": {\"In\": 1.0}, \"13\": {\"In\": 1.0}, \"14\": {\"In\": 1.0}, \"15\": {\"In\": 1.0}, \"16\": {\"In\": 1.0}, \"17\": {\"In\": 1.0}, \"18\": {\"In\": 1.0}, \"19\": {\"In\": 1.0}, \"20\": {\"In\": 1.0}, \"21\": {\"In\": 1.0}, \"22\": {\"In\": 1.0}, \"23\": {\"In\": 1.0}, \"24\": {\"In\": 1.0}, \"25\": {\"In\": 1.0}, \"26\": {\"In\": 1.0}, \"27\": {\"In\": 1.0}, \"28\": {\"O\": 1.0}, \"29\": {\"O\": 1.0}, \"30\": {\"O\": 1.0}, \"31\": {\"O\": 1.0}, \"32\": {\"O\": 1.0}, \"33\": {\"O\": 1.0}, \"34\": {\"O\": 1.0}, \"35\": {\"O\": 1.0}, \"36\": {\"O\": 1.0}, \"37\": {\"O\": 1.0}, \"38\": {\"O\": 1.0}, \"39\": {\"O\": 1.0}, \"40\": {\"O\": 1.0}, \"41\": {\"O\": 1.0}, \"42\": {\"O\": 1.0}, \"43\": {\"O\": 1.0}, \"44\": {\"O\": 1.0}, \"45\": {\"O\": 1.0}, \"46\": {\"O\": 1.0}, \"47\": {\"O\": 1.0}, \"48\": {\"O\": 1.0}, \"49\": {\"O\": 1.0}, \"50\": {\"O\": 1.0}, \"51\": {\"O\": 1.0}, \"52\": {\"In\": 1.0}, \"53\": {\"In\": 1.0}, \"54\": {\"In\": 1.0}, \"55\": {\"In\": 1.0}, \"56\": {\"In\": 1.0}, \"57\": {\"In\": 1.0}, \"58\": {\"In\": 1.0}, \"59\": {\"In\": 1.0}, \"60\": {\"In\": 1.0}, \"61\": {\"In\": 1.0}, \"62\": {\"In\": 1.0}, \"63\": {\"In\": 1.0}, \"64\": {\"In\": 1.0}, \"65\": {\"In\": 1.0}, \"66\": {\"In\": 1.0}, \"67\": {\"In\": 1.0}, \"68\": {\"O\": 1.0}, \"69\": {\"O\": 1.0}, \"70\": {\"O\": 1.0}, \"71\": {\"O\": 1.0}, \"72\": {\"O\": 1.0}, \"73\": {\"O\": 1.0}, \"74\": {\"O\": 1.0}, \"75\": {\"O\": 1.0}, \"76\": {\"O\": 1.0}, \"77\": {\"O\": 1.0}, \"78\": {\"O\": 1.0}, \"79\": {\"O\": 1.0}, \"80\": {\"O\": 1.0}, \"81\": {\"O\": 1.0}, \"82\": {\"O\": 1.0}, \"83\": {\"O\": 1.0}, \"84\": {\"O\": 1.0}, \"85\": {\"O\": 1.0}, \"86\": {\"O\": 1.0}, \"87\": {\"O\": 1.0}, \"88\": {\"O\": 1.0}, \"89\": {\"O\": 1.0}, \"90\": {\"O\": 1.0}, \"91\": {\"O\": 1.0}, \"92\": {\"In\": 1.0}, \"93\": {\"In\": 1.0}, \"94\": {\"In\": 1.0}, \"95\": {\"In\": 1.0}, \"96\": {\"In\": 1.0}, \"97\": {\"In\": 1.0}, \"98\": {\"In\": 1.0}, \"99\": {\"In\": 1.0}, \"100\": {\"In\": 1.0}, \"101\": {\"In\": 1.0}, \"102\": {\"In\": 1.0}, \"103\": {\"In\": 1.0}, \"104\": {\"In\": 1.0}, \"105\": {\"In\": 1.0}, \"106\": {\"In\": 1.0}, \"107\": {\"In\": 1.0}, \"108\": {\"O\": 1.0}, \"109\": {\"O\": 1.0}, \"110\": {\"O\": 1.0}, \"111\": {\"O\": 1.0}, \"112\": {\"O\": 1.0}, \"113\": {\"O\": 1.0}, \"114\": {\"O\": 1.0}, \"115\": {\"O\": 1.0}, \"116\": {\"O\": 1.0}, \"117\": {\"O\": 1.0}, \"118\": {\"O\": 1.0}, \"119\": {\"O\": 1.0}}" energy=-707.6320190429688 free_energy=-707.6320190429688 stress="0.0075021241791546345 -0.000285449146758765 1.434861587767955e-05 -0.000285449146758765 0.007784917484968901 -2.1153011857677484e-06 1.434861587767955e-05 -2.1153011857677484e-06 -2.1741787350038067e-05" pbc="T T T"
O        5.56112551       5.29730098      12.44442493  F        0      -0.00977512       0.01477322      -0.00303471
O        7.19929797       2.16742567      12.44442488  F        1      -0.00909264      -0.01179907      -0.00250852
O        9.09076378       5.15106294      12.44442506  F        2       0.00728118       0.01625101      -0.00331628
O        3.56236441       2.32744963      12.81467041  F        3      -0.01083550      -0.02045352      -0.00735116
O       10.77064547       1.92137361      12.81467059  F        4       0.02194585       0.00342929      -0.02177018
O        7.51817736       8.36696557      12.81467060  F        5      -0.00170413       0.00897247      -0.01091081
O       -3.86713652       8.43746206      12.95843886  F        6       0.02500899       0.00955606       0.01845706
O        1.91024068       5.04801920      12.95843918  F        7      -0.00677559       0.02465809       0.01482880
O        1.95689587      11.74609578      12.95843921  F        8      -0.02232805      -0.03454266       0.00288069
O       -5.62751792      11.43742505      12.90107995  F        9       0.02565711       0.01143137       0.00818408
O        0.19238766       2.02350350      12.90107932  F       10      -0.00663450       0.00277394      -0.00256157
O        5.43512990      11.77064967      12.90107909  F       11       0.01342558      -0.02857038      -0.00502455
In       2.02827288       0.93415595      13.34696164  F       12      -0.00449059       0.01955486       0.00784354
In       5.45297263       1.43044201      13.46548669  F       13       0.03325710       0.03803734      -0.01265115
In       5.79604177       7.17815473      13.46548635  F       14       0.00492774      -0.00898156      -0.01659094
In       7.07859496      10.39217548      13.34696140  F       15      -0.01036594      -0.00748155       0.01417510
In      10.60217256       4.00719198      13.46548647  F       16      -0.02115278      -0.01389009       0.00479800
In      12.74431985       1.28945811      13.34696112  F       17      -0.02559967       0.00256640       0.03789887
In      -3.76992867      10.45841758      13.58493911  F       18      -0.01246526      -0.00332208      -0.04844296
In       0.11143913       4.12172609      13.58493797  F       19      -0.01544014      -0.01339601       0.01014054
In       7.28372934       4.20526284      13.28077194  F       20       0.01359218      -0.02562157       0.02461988
In       3.65848992      10.65143468      13.58493907  F       21       0.00303104       0.02204210       0.03157561
In      -2.12514371       7.57248039      13.82744761  F       22      -0.04395409      -0.01876260      -0.04544115
In       1.78834112       6.98912009      13.82744861  F       23       0.01705965      -0.02925611      -0.04985940
In       3.89762555       4.37439996      13.55369945  F       24       0.03153178      -0.02101221       0.00918059
In       0.33680320      10.66997741      13.82744770  F       25       0.04568827       0.05035062      -0.02485955
In       8.83030441       1.18824328      13.55369950  F       26       0.01666094       0.02814585       0.05086891
In       9.12325787       7.05314622      13.55369981  F       27      -0.01658639      -0.02739426       0.00126123
O        1.94314284       9.09920259      13.79983277  F       28      -0.01530986       0.00056279       0.01920193
O       -0.37515974       6.38337672      13.79983300  F       29       0.01661274       0.01164168       0.01671612
O       -1.56798334       9.74899853      13.79983313  F       30      -0.02218622      -0.00356577       0.04123881
O       -1.90665604       3.49451490      14.07374983  F       31       0.01710663       0.01876789      -0.02915385
O       -3.30406258      12.51974383      14.07375025  F       32       0.01531523      -0.02402791       0.05200390
O        5.21071859       9.21731872      14.07374980  F       33       0.00114602      -0.01827973      -0.00700326
O        6.95268262       0.11029125      14.35625235  F       34      -0.05424953      -0.05416751       0.02591039
O        3.90290295       6.53944318      14.35625252  F       35      -0.01156224       0.01351166       0.01791712
O       10.99560128       5.96605484      14.35625280  F       36       0.02274317       0.02742618      -0.00423513
O        5.60077915       3.29585311      14.56420047  F       37      -0.03857782       0.02843989      -0.04296184
O        8.91277589       3.20249084      14.56420075  F       38      -0.01035290       0.01170962      -0.07582694
O        7.33763173       6.11744518      14.56420087  F       39       0.01142921       0.01814932      -0.01197016
O        1.68336921       1.02548187      15.48953070  F       40       0.01278426      -0.01576385      -0.00124398
O       12.83768043       0.94510034      15.48953027  F       41       0.05138625      -0.01576413      -0.05048081
O        7.33013789      10.64520717      15.48953039  F       42       0.03302513      -0.02929568      -0.01140037
O       -3.87048772      10.25806959      15.75644575  F       43       0.10315355       0.00149256       0.05027169
O        0.33522381       4.13481358      15.75644581  F       44      -0.00249675       0.03359066       0.00410276
O        3.53526358      10.83869431      15.75644572  F       45      -0.03265619      -0.09921114      -0.03064668
O        9.24484356       0.74344663      15.94429150  F       46      -0.06367862      -0.09560591      -0.04750519
O        3.30515102       4.23779662      15.94429168  F       47      -0.00336245       0.01155480       0.00401706
O        9.30119327       7.63454631      15.94429132  F       48       0.02308801       0.06002939      -0.01236373
O       -1.89390768       7.68105065      15.98554452  F       49       0.03227478       0.08010870       0.09600391
O        1.57869822       7.13509120      15.98554413  F       50      -0.01305982       0.11246063       0.09457940
O        0.31520971      10.41543579      15.98554439  F       51      -0.07912739      -0.06143799       0.00451179
In      -1.57901381       3.03754313      16.29163881  F       52      -0.13226625      -0.08531562       0.02092508
In      -3.86363272      12.46448245      16.29163869  F       53      -0.15757945       0.13258092      -0.07622641
In      -0.30746998       6.17668715      16.39885574  F       54      -0.04070660      -0.12096924      -0.21580637
In      -1.78082649       9.79372205      16.39885556  F       55       0.05942723      -0.12886955      -0.30756995
In       2.08829635       9.26116873      16.39885555  F       56      -0.01840941       0.16155924       0.22898147
In       5.44264624       9.72955081      16.29163837  F       57       0.02684129       0.08906946       0.00747672
In      14.56745775       0.00000023      16.52452729  F       58      -0.07111644      -0.00288331      -0.01594865
In       7.28372884       0.00000046      16.52452727  F       59       0.25320941       0.28944483       0.13559261
In       3.64186448       6.30789445      16.52452688  F       60       0.06209372      -0.07828978       0.02061638
In      -3.64186467       6.30789479      16.52452729  F       61      -0.11014596      -0.08550052      -0.00923581
In       9.06455585       2.82206686      16.65019864  F       62      -0.09855167      -0.05819874       0.25768465
In       1.84108280       2.88623741      16.75741682  F       63      -0.01420557      -0.01239104      -0.06894110
In       5.19543306       3.35462016      16.65019954  F       64       0.24694279      -0.14567661       0.10995920
In      11.14736129       0.15130547      16.75741597  F       65       0.00270527       0.06985673      -0.14967382
In       7.59119877       6.43910216      16.65019924  F       66       0.04833180      -0.09626742      -0.00877541
In       8.86274257       9.57824538      16.75741545  F       67      -0.04299401      -0.02359340      -0.00782167
O        9.17763668       4.93473784      17.06350958  F       68       0.04709471       0.38315862      -0.21530956
O        6.96851909       2.20035367      17.06350993  F       69      -0.13235031      -0.29555899       0.36834201
O        5.70503103       5.48069763      17.06350990  F       70      -0.04058188       0.01695405       0.03234932
O       -2.01746347       4.98124236      17.10476289  F       71       0.04961213       0.04772192       0.07900821
O       -1.96111486      11.87234229      17.10476307  F       72      -0.16167077      -0.09928337      -0.05552557
O        3.97857827       8.37799246      17.10476382  F       73      -0.22482823       0.07468505       0.14821224
O        6.94850543       8.48097521      17.29260816  F       74       0.01165876      -0.00769028       0.01548424
O       11.15421650       2.35771879      17.29260829  F       75       0.32022056       0.10461566      -0.24146686
O        3.74846506       1.77709453      17.29260778  F       76      -0.08054143       0.00091705      -0.11811810
O       -0.04640858       1.97058198      17.55952389  F       77       0.03735516       0.03281716       0.01821414
O       -5.55395094      11.67068958      17.55952349  F       78       0.07516283      -0.02607462      -0.01792127
O        5.60035973      11.59030666      17.55952404  F       79       0.17275524      -0.08418103      -0.10583106
O       -1.59529475       9.43591139      18.49341596  T       80       0.00448405      -0.00341602       0.00231349
O        1.64592143       9.41329942      18.53553848  T       81       0.00179648      -0.00763431      -0.00668535
O       -0.04252664       6.47444254      18.47262400  T       82       0.01053509       0.00193022       0.02522635
O        3.38097558       6.08904620      18.69727084  T       83      -0.00083323       0.00260344      -0.01073843
O       -3.69117362       6.64711852      18.69782509  T       84       0.00087637      -0.00131875       0.00222445
O        0.29290073      12.41037801      18.71220092  T       85      -0.00872782      -0.00196171       0.00945282
O        9.20650920       9.11593680      18.97081380  T       86      -0.01955921      -0.00599766       0.00582211
O        2.06781807       3.41180560      18.96937892  T       87       0.00641781      -0.00550371       0.00192934
O       10.64391082       0.10515664      18.90795578  T       88      -0.01852846      -0.00942865       0.01320539
O        8.90853005       2.87711119      19.05736611  T       89       0.00247604      -0.01080346       0.00888729
O        5.37071290       3.50995613      19.26852356  T       90      -0.00687470      -0.00431806      -0.00827974
O        7.66727708       6.23147480      19.26084469  T       91       0.00333571      -0.00002977       0.00459850
In      -1.84428861       5.53827630      19.50116623  T       92       0.00263669       0.00913728      -0.00943691
In      -1.66009357      11.48458643      19.35120370  T       93      -0.00757440      -0.02403854      -0.00306348
In       7.01122542       1.92711012      19.33525553  T       94      -0.00101602       0.00838220      -0.01389429
In       3.39862442       8.27234857      19.48163723  T       95      -0.00972973       0.00086805      -0.00266153
In       5.50390389       5.61834123      19.22612500  T       96      -0.01495116       0.01202360      -0.00260098
In       9.41273115       5.02720433      19.20777310  T       97       0.00265490       0.00952302       0.00345973
In       0.01442876       8.34620195      19.66196701  T       98      -0.00224648      -0.00058708       0.00774582
In       3.62260667       1.99941973      19.45151545  T       99      -0.01534703      -0.00304761       0.00217693
In      11.04039323       2.16184770      19.45109353  T      100       0.00151748      -0.01131177       0.00330997
In       7.18239899       8.48948671      19.46331932  T      101      -0.00237253       0.00000182      -0.00205931
In      -5.46616036      11.33711519      19.69946060  T      102      -0.00137596      -0.01040010      -0.00341922
In      -3.31968754       8.59468796      19.59232962  T      103      -0.00117384       0.00358187      -0.01059200
In       0.19905940       2.22595514      19.70168132  T      104      -0.01224215       0.00701445       0.01099484
In       1.50761677       5.43110056      19.59762759  T      105      -0.00711013       0.00133016       0.01036471
In       1.90283100      11.33562477      19.68749516  T      106      -0.01686180      -0.00435172       0.00745363
In       5.27781368      11.69700747      19.69275342  T      107      -0.00047654       0.00022141      -0.00531432
O        1.84370833       0.85556904      20.13350830  T      108       0.00636995      -0.00109540       0.00483656
O        7.10649078      10.59136579      20.14606937  T      109      -0.00727331      -0.01301371       0.00031978
O       12.90702812       1.19207545      20.14992452  T      110      -0.00144035      -0.00580300       0.00525904
O        5.37529232       7.56989468      20.07573073  T      111      -0.00212172      -0.01451748      -0.00432163
O       11.14278523       4.17724434      20.12307973  T      112      -0.01131608      -0.00444198       0.00606793
O        5.26566740       0.84864012      20.00735678  T      113      -0.00140074       0.01878211      -0.01284122
O       -0.22572531       4.25854008      20.24987417  T      114      -0.00403409      -0.00093567      -0.01927716
O       -3.48517970      10.68326045      20.23132437  T      115      -0.00143962      -0.00405037       0.00022489
O        3.74323838      10.29825870      20.21213506  T      116      -0.00941619       0.00040179       0.01252866
O       -1.77615804       7.47301809      20.58707260  T      117       0.00729124      -0.00405720       0.00017440
O       -0.00365310      10.39214620      20.68325404  T      118      -0.00089579       0.01361161       0.01725245
O        1.72363718       7.34185264      20.59005162  T      119      -0.00736324      -0.00821942       0.00322998
O        9.14702948       0.03666988      21.51785908  T        0      -0.01827076       0.01488063       0.00023118
O        7.63314244       1.73919056      21.50930653  T        0       0.01693173      -0.01598752       0.00246820
C        8.05061031       0.57603453      23.54538637  T        0      -0.00561555       0.01289883       0.01325841
C        8.28473949       0.80717303      22.06646612  T        0      -0.00050448      -0.00663334       0.02440453
H        7.56655054      -0.40344211      23.68302920  T        0       0.02167206       0.01435243       0.00207698
H        9.01174255       0.53060322      24.07436540  T        0      -0.00722693       0.00246076      -0.02129784
H        7.40738724       1.35638552      23.96227042  T        0       0.00864437       0.00706206       0.01854520
H        7.20373263      -2.23195883      21.65368888  T        0       0.00490443      -0.01118638      -0.00630766
