128
Lattice="14.567458257780915 0.0 0.0 -7.283729128890462 12.615788919807672 0.0 0.0 0.0 33.04905420593702" Properties=species:S:1:pos:R:3:move_mask:L:1:spacegroup_kinds:I:1:forces:R:3 spacegroup="P 1" unit_cell=conventional occupancy="_JSON {\"0\": {\"O\": 1.0}, \"1\": {\"O\": 1.0}, \"2\": {\"O\": 1.0}, \"3\": {\"O\": 1.0}, \"4\": {\"O\": 1.0}, \"5\": {\"O\": 1.0}, \"6\": {\"O\": 1.0}, \"7\": {\"O\": 1.0}, \"8\": {\"O\": 1.0}, \"9\": {\"O\": 1.0}, \"10\": {\"O\": 1.0}, \"11\": {\"O\": 1.0}, \"12\": {\"In\": 1.0}, \"13\": {\"In\": 1.0}, \"14\": {\"In\": 1.0}, \"15\": {\"In\": 1.0}, \"16\": {\"In\": 1.0}, \"17\": {\"In\": 1.0}, \"18\": {\"In\": 1.0}, \"19\": {\"In\": 1.0}, \"20\": {\"In\": 1.0}, \"21\": {\"In\": 1.0}, \"22\": {\"In\": 1.0}, \"23\": {\"In\": 1.0}, \"24\": {\"In\": 1.0}, \"25\": {\"In\": 1.0}, \"26\": {\"In\": 1.0}, \"27\": {\"In\": 1.0}, \"28\": {\"O\": 1.0}, \"29\": {\"O\": 1.0}, \"30\": {\"O\": 1.0}, \"31\": {\"O\": 1.0}, \"32\": {\"O\": 1.0}, \"33\": {\"O\": 1.0}, \"34\": {\"O\": 1.0}, \"35\": {\"O\": 1.0}, \"36\": {\"O\": 1.0}, \"37\": {\"O\": 1.0}, \"38\": {\"O\": 1.0}, \"39\": {\"O\": 1.0}, \"40\": {\"O\": 1.0}, \"41\": {\"O\": 1.0}, \"42\": {\"O\": 1.0}, \"43\": {\"O\": 1.0}, \"44\": {\"O\": 1.0}, \"45\": {\"O\": 1.0}, \"46\": {\"O\": 1.0}, \"47\": {\"O\": 1.0}, \"48\": {\"O\": 1.0}, \"49\": {\"O\": 1.0}, \"50\": {\"O\": 1.0}, \"51\": {\"O\": 1.0}, \"52\": {\"In\": 1.0}, \"53\": {\"In\": 1.0}, \"54\": {\"In\": 1.0}, \"55\": {\"In\": 1.0}, \"56\": {\"In\": 1.0}, \"57\": {\"In\": 1.0}, \"58\": {\"In\": 1.0}, \"59\": {\"In\": 1.0}, \"60\": {\"In\": 1.0}, \"61\": {\"In\": 1.0}, \"62\": {\"In\": 1.0}, \"63\": {\"In\": 1.0}, \"64\": {\"In\": 1.0}, \"65\": {\"In\": 1.0}, \"66\": {\"In\": 1.0}, \"67\": {\"In\": 1.0}, \"68\": {\"O\": 1.0}, \"69\": {\"O\": 1.0}, \"70\": {\"O\": 1.0}, \"71\": {\"O\": 1.0}, \"72\": {\"O\": 1.0}, \"73\": {\"O\": 1.0}, \"74\": {\"O\": 1.0}, \"75\": {\"O\": 1.0}, \"76\": {\"O\": 1.0}, \"77\": {\"O\": 1.0}, \"78\": {\"O\": 1.0}, \"79\": {\"O\": 1.0}, \"80\": {\"O\": 1.0}, \"81\": {\"O\": 1.0}, \"82\": {\"O\": 1.0}, \"83\": {\"O\": 1.0}, \"84\": {\"O\": 1.0}, \"85\": {\"O\": 1.0}, \"86\": {\"O\": 1.0}, \"87\": {\"O\": 1.0}, \"88\": {\"O\": 1.0}, \"89\": {\"O\": 1.0}, \"90\": {\"O\": 1.0}, \"91\": {\"O\": 1.0}, \"92\": {\"In\": 1.0}, \"93\": {\"In\": 1.0}, \"94\": {\"In\": 1.0}, \"95\": {\"In\": 1.0}, \"96\": {\"In\": 1.0}, \"97\": {\"In\": 1.0}, \"98\": {\"In\": 1.0}, \"99\": {\"In\": 1.0}, \"100\": {\"In\": 1.0}, \"101\": {\"In\": 1.0}, \"102\": {\"In\": 1.0}, \"103\": {\"In\": 1.0}, \"104\": {\"In\": 1.0}, \"105\": {\"In\": 1.0}, \"106\": {\"In\": 1.0}, \"107\": {\"In\": 1.0}, \"108\": {\"O\": 1.0}, \"109\": {\"O\": 1.0}, \"110\": {\"O\": 1.0}, \"111\": {\"O\": 1.0}, \"112\": {\"O\": 1.0}, \"113\": {\"O\": 1.0}, \"114\": {\"O\": 1.0}, \"115\": {\"O\": 1.0}, \"116\": {\"O\": 1.0}, \"117\": {\"O\": 1.0}, \"118\": {\"O\": 1.0}, \"119\": {\"O\": 1.0}}" energy=-707.1026611328125 free_energy=-707.1026611328125 stress="0.0074502574279904366 -4.497926784097217e-05 -1.9839239030261524e-05 -4.497926784097217e-05 0.007392795756459236 7.896866918599699e-06 -1.9839239030261524e-05 7.896866918599699e-06 -5.618238719762303e-05" pbc="T T T"
O        5.56112551       5.29730098      12.44442493  F        0      -0.00035806       0.02398670      -0.01251364
O        7.19929797       2.16742567      12.44442488  F        1       0.01217587      -0.02361074      -0.00351822
O        9.09076378       5.15106294      12.44442506  F        2       0.02128285       0.00948097      -0.00702167
O        3.56236441       2.32744963      12.81467041  F        3      -0.01591724      -0.03558026      -0.02669716
O       10.77064547       1.92137361      12.81467059  F        4       0.02060446      -0.00405267      -0.01645112
O        7.51817736       8.36696557      12.81467060  F        5      -0.00326346       0.02174711      -0.01275694
O       -3.86713652       8.43746206      12.95843886  F        6       0.02848378       0.00657727       0.02389002
O        1.91024068       5.04801920      12.95843918  F        7      -0.03595537       0.03631880      -0.00518161
O        1.95689587      11.74609578      12.95843921  F        8      -0.01104708      -0.03078642       0.01622391
O       -5.62751792      11.43742505      12.90107995  F        9       0.01531614      -0.00351535       0.00254536
O        0.19238766       2.02350350      12.90107932  F       10      -0.03527509       0.00654069      -0.01540005
O        5.43512990      11.77064967      12.90107909  F       11       0.00210018      -0.02147699       0.00306404
In       2.02827288       0.93415595      13.34696164  F       12       0.00726654       0.03347251       0.07033478
In       5.45297263       1.43044201      13.46548669  F       13       0.00410191       0.06380757       0.01154500
In       5.79604177       7.17815473      13.46548635  F       14      -0.00575404      -0.03930775       0.00339286
In       7.07859496      10.39217548      13.34696140  F       15       0.00211198      -0.01142184       0.00860186
In      10.60217256       4.00719198      13.46548647  F       16      -0.02720477      -0.01204979      -0.00246269
In      12.74431985       1.28945811      13.34696112  F       17      -0.00716513       0.01160241       0.01553941
In      -3.76992867      10.45841758      13.58493911  F       18      -0.01531074       0.02448647      -0.05411324
In       0.11143913       4.12172609      13.58493797  F       19       0.01807429      -0.01730130       0.02751984
In       7.28372934       4.20526284      13.28077194  F       20      -0.03126116      -0.02305011       0.04016035
In       3.65848992      10.65143468      13.58493907  F       21       0.01490369       0.00412923      -0.03783235
In      -2.12514371       7.57248039      13.82744761  F       22      -0.04053849      -0.01491296      -0.06394033
In       1.78834112       6.98912009      13.82744861  F       23       0.04297277      -0.06499197      -0.04164866
In       3.89762555       4.37439996      13.55369945  F       24       0.01877293      -0.03267662       0.08294183
In       0.33680320      10.66997741      13.82744770  F       25       0.03474230       0.05306977      -0.07062039
In       8.83030441       1.18824328      13.55369950  F       26      -0.00460291       0.04636147       0.01054141
In       9.12325787       7.05314622      13.55369981  F       27      -0.04018756      -0.02998919      -0.00288628
O        1.94314284       9.09920259      13.79983277  F       28      -0.01703659       0.02503502       0.04026911
O       -0.37515974       6.38337672      13.79983300  F       29       0.00235233       0.02206716       0.02087563
O       -1.56798334       9.74899853      13.79983313  F       30      -0.00652701      -0.00891271       0.05671114
O       -1.90665604       3.49451490      14.07374983  F       31      -0.00467268       0.01007992      -0.01621728
O       -3.30406258      12.51974383      14.07375025  F       32       0.02366811      -0.06391975       0.00841929
O        5.21071859       9.21731872      14.07374980  F       33      -0.01399273       0.00987694       0.00756082
O        6.95268262       0.11029125      14.35625235  F       34      -0.01386398      -0.07366003       0.04474054
O        3.90290295       6.53944318      14.35625252  F       35      -0.02794005       0.05480528      -0.03217173
O       10.99560128       5.96605484      14.35625280  F       36       0.02612811       0.02295694       0.01333115
O        5.60077915       3.29585311      14.56420047  F       37       0.01378398       0.02381426      -0.14351314
O        8.91277589       3.20249084      14.56420075  F       38       0.02657227      -0.00937209      -0.04205853
O        7.33763173       6.11744518      14.56420087  F       39       0.05739830       0.02958330      -0.05409372
O        1.68336921       1.02548187      15.48953070  F       40      -0.10720591      -0.07943058      -0.10889256
O       12.83768043       0.94510034      15.48953027  F       41      -0.02850845      -0.01876563      -0.01090023
O        7.33013789      10.64520717      15.48953039  F       42      -0.00923370      -0.03155605       0.00946639
O       -3.87048772      10.25806959      15.75644575  F       43       0.13566537      -0.01221949       0.08470850
O        0.33522381       4.13481358      15.75644581  F       44      -0.05195564       0.06504658      -0.00942646
O        3.53526358      10.83869431      15.75644572  F       45      -0.07285163      -0.05086355       0.08595110
O        9.24484356       0.74344663      15.94429150  F       46       0.04985549      -0.12926659       0.01248796
O        3.30515102       4.23779662      15.94429168  F       47      -0.10321417       0.16775915      -0.11387035
O        9.30119327       7.63454631      15.94429132  F       48       0.02374378       0.03860849       0.01534928
O       -1.89390768       7.68105065      15.98554452  F       49       0.04120512       0.11389640       0.13393012
O        1.57869822       7.13509120      15.98554413  F       50      -0.03662106       0.11770448       0.09422070
O        0.31520971      10.41543579      15.98554439  F       51      -0.03117439      -0.04155573       0.07421388
In      -1.57901381       3.03754313      16.29163881  F       52       0.02276292      -0.06376065      -0.00271119
In      -3.86363272      12.46448245      16.29163869  F       53      -0.15582415       0.44164458       0.09688046
In      -0.30746998       6.17668715      16.39885574  F       54       0.00767398      -0.13119286      -0.19958271
In      -1.78082649       9.79372205      16.39885556  F       55       0.03061648      -0.13808572      -0.28339338
In       2.08829635       9.26116873      16.39885555  F       56       0.03268135      -0.05626448      -0.11407736
In       5.44264624       9.72955081      16.29163837  F       57       0.06150103       0.00388678      -0.03567644
In      14.56745775       0.00000023      16.52452729  F       58       0.06802227       0.07846685      -0.03024356
In       7.28372884       0.00000046      16.52452727  F       59       0.14796287       0.46499312       0.14008251
In       3.64186448       6.30789445      16.52452688  F       60       0.13277757      -0.22497272      -0.01028447
In      -3.64186467       6.30789479      16.52452729  F       61      -0.10162134      -0.06668352      -0.00618434
In       9.06455585       2.82206686      16.65019864  F       62      -0.26057681      -0.09248963       0.16761473
In       1.84108280       2.88623741      16.75741682  F       63       0.27206498      -0.13176733       0.06775557
In       5.19543306       3.35462016      16.65019954  F       64      -0.03535768      -0.16550466       0.31451470
In      11.14736129       0.15130547      16.75741597  F       65       0.05776031       0.11883195      -0.17787310
In       7.59119877       6.43910216      16.65019924  F       66      -0.14230606      -0.13458633      -0.05776967
In       8.86274257       9.57824538      16.75741545  F       67      -0.04370183       0.01593679       0.00963857
O        9.17763668       4.93473784      17.06350958  F       68       0.05329404       0.20126674      -0.03179884
O        6.96851909       2.20035367      17.06350993  F       69       0.34747803      -0.49012691       0.20226477
O        5.70503103       5.48069763      17.06350990  F       70       0.11071739       0.56927681      -0.25777823
O       -2.01746347       4.98124236      17.10476289  F       71      -0.00394809       0.02223635       0.07516088
O       -1.96111486      11.87234229      17.10476307  F       72      -0.00368665      -0.27041784      -0.14277744
O        3.97857827       8.37799246      17.10476382  F       73      -0.20180082       0.14101711       0.16954333
O        6.94850543       8.48097521      17.29260816  F       74       0.01956955       0.02274957       0.07652045
O       11.15421650       2.35771879      17.29260829  F       75       0.16171136       0.01154646      -0.07410427
O        3.74846506       1.77709453      17.29260778  F       76      -0.31636891      -0.13198268       0.06251703
O       -0.04640858       1.97058198      17.55952389  F       77      -0.08611354      -0.00253176      -0.04465942
O       -5.55395094      11.67068958      17.55952349  F       78       0.01237687      -0.12337899      -0.05853881
O        5.60035973      11.59030666      17.55952404  F       79      -0.01911045      -0.03755275       0.00807236
O       -1.57221271       9.43243721      18.51044426  T       80      -0.00059637       0.00469268      -0.01439950
O        1.63171250       9.32841934      18.50500150  T       81       0.00770873      -0.00032327       0.00572583
O       -0.05109401       6.46558373      18.47996449  T       82       0.00693637      -0.00585346       0.00492340
O        3.36746552       6.10365264      18.70577235  T       83      -0.00517308      -0.00816676       0.00565112
O       -3.69382175       6.65321387      18.69725423  T       84      -0.00481433      -0.00656459       0.00669178
O        0.32667041      12.40533678      18.72558645  T       85      -0.00453156       0.00545047       0.00200902
O        9.20315869       9.12332739      18.97989426  T       86      -0.00371829      -0.00395900      -0.00389811
O        2.03391964       3.41620794      18.96337846  T       87      -0.00763246      -0.00217572       0.00888149
O       10.61741606       0.10498750      18.96325219  T       88       0.00599408       0.00722219      -0.00229304
O        8.88735730       2.84615999      19.15284430  T       89      -0.00260112       0.00619426       0.00890791
O        5.30974835       3.54095926      18.97223379  T       90       0.00711510       0.00355202      -0.00227877
O        7.66098812       6.23241164      19.27093548  T       91      -0.00083929      -0.00161928      -0.00556791
In      -1.85146565       5.53595321      19.49383714  T       92       0.00384198      -0.00118250       0.00494383
In      -1.65212033      11.48035755      19.33136271  T       93       0.00305389       0.01750349      -0.00056805
In       6.91846530       2.05240651      19.31358990  T       94      -0.00782236       0.00105497       0.00012247
In       3.39790025       8.22403985      19.49966566  T       95      -0.01155284      -0.01101999      -0.00726770
In       5.49235224       5.61257019      19.21673754  T       96      -0.00184859      -0.01254183      -0.01248460
In       9.39848207       5.03152304      19.21942223  T       97       0.00809133      -0.00338090      -0.00332761
In      -0.00174979       8.31043002      19.69034252  T       98       0.00995366       0.00428918       0.00533021
In       3.62786400       2.08713740      19.55720166  T       99       0.00354634       0.00787427      -0.00954562
In      11.05445271       2.17527016      19.45551074  T      100       0.00446993      -0.00141362      -0.00334109
In       7.18395600       8.48250632      19.46394645  T      101      -0.00362309       0.01295327       0.00348820
In      -5.46075732      11.35031472      19.69536204  T      102      -0.00328439       0.00216558       0.01009265
In      -3.32529949       8.59825842      19.60088205  T      103       0.00324366      -0.00833882      -0.00267418
In       0.20556104       2.22110961      19.70148825  T      104       0.00157811       0.00112647       0.00051774
In       1.49765237       5.40984002      19.60986805  T      105       0.00756977       0.00264248      -0.00825016
In       1.90399463      11.21594352      19.50609877  T      106      -0.01954380      -0.01781721       0.00244581
In       5.28329921      11.68771122      19.69907455  T      107       0.00160535      -0.00779794      -0.00505741
O        1.84149108       0.85361065      20.11637077  T      108      -0.00048187       0.00644417       0.00824916
O        7.09689730      10.58235334      20.14780066  T      109      -0.00332808       0.00122344      -0.00681007
O       12.89935872       1.18380385      20.15207271  T      110      -0.00987279      -0.00056658      -0.00876886
O        5.37876905       7.55454806      20.09507921  T      111       0.00017609      -0.00419315      -0.00591415
O       11.13210019       4.18846744      20.11539133  T      112       0.00525740      -0.00561851       0.00602210
O        5.28779706       0.82258621      19.89753401  T      113       0.00340129      -0.02161354       0.00308755
O       -0.25068507       4.25188883      20.25748451  T      114      -0.00627249      -0.01078598       0.00613445
O       -3.47423127      10.67904924      20.23819195  T      115      -0.00157880       0.00158013       0.00562674
O        3.71327795      10.28448264      20.22024770  T      116       0.00778443       0.00279684       0.00396240
O       -1.79045758       7.47181547      20.60636809  T      117      -0.01098160      -0.00474036      -0.00308359
O        0.11016661      10.42829985      20.69319395  T      118      -0.00673277       0.00049980      -0.00084710
O        1.70741791       7.32329799      20.61261676  T      119       0.00520201       0.00556479       0.00475818
O        4.32484624       2.93618529      21.58647246  T        0      -0.01499116      -0.00734872       0.01895134
O        6.61230666       2.74433407      21.51108876  T        0       0.00087672      -0.00039274      -0.01932099
C        5.45079959       2.17020521      23.51806010  T        0       0.00119727       0.01261126       0.00480326
C        5.47133560       2.64842657      22.07674885  T        0       0.00016696       0.01038077      -0.00631583
H        4.92765121       2.90296059      24.14501934  T        0       0.00781527       0.01258311       0.00697008
H        4.86280911       1.24160965      23.56668423  T        0       0.00715891       0.00616375       0.01456811
H        6.46269445       1.98980866      23.89383327  T        0      -0.00252003       0.01190574       0.00308483
H        7.34915644      -2.18750815      21.66577187  T        0       0.00739887       0.00981669      -0.00139409
