758
Lattice="34.12851249988762 0.0 0.0 0.0 16.14835182838364 0.0 0.0 0.0 41.29287865270102" Properties=species:S:1:pos:R:3:move_mask:L:1:spacegroup_kinds:I:1:forces:R:3 spacegroup="P 1" unit_cell=conventional occupancy="_JSON {\"0\": {\"O\": 1.0}, \"1\": {\"O\": 1.0}, \"2\": {\"O\": 1.0}, \"3\": {\"Sn\": 1.0}, \"4\": {\"Sn\": 1.0}, \"5\": {\"O\": 1.0}, \"6\": {\"O\": 1.0}, \"7\": {\"O\": 1.0}, \"8\": {\"O\": 1.0}, \"9\": {\"Sn\": 1.0}, \"10\": {\"Sn\": 1.0}, \"11\": {\"O\": 1.0}, \"12\": {\"O\": 1.0}, \"13\": {\"O\": 1.0}, \"14\": {\"O\": 1.0}, \"15\": {\"Sn\": 1.0}, \"16\": {\"Sn\": 1.0}, \"17\": {\"O\": 1.0}, \"18\": {\"O\": 1.0}, \"19\": {\"O\": 1.0}, \"20\": {\"O\": 1.0}, \"21\": {\"Sn\": 1.0}, \"22\": {\"Sn\": 1.0}, \"23\": {\"O\": 1.0}, \"24\": {\"O\": 1.0}, \"25\": {\"O\": 1.0}, \"26\": {\"O\": 1.0}, \"27\": {\"Sn\": 1.0}, \"28\": {\"Sn\": 1.0}, \"29\": {\"O\": 1.0}}" energy=-4686.6669921875 free_energy=-4686.6669921875 stress="-0.0011768590193241835 2.261120926050353e-06 -1.7625414329813793e-05 2.261120926050353e-06 0.0076889898627996445 9.2931560402576e-07 -1.7625414329813793e-05 9.2931560402576e-07 -6.050484807929024e-05" pbc="T T T"
O        6.82570209       3.22967013      12.43114757  F        0       0.00000458       0.00001114       0.00178063
O        2.15955932       1.61483561      13.63952349  F        1      -0.01634189      -0.00000746      -0.00652784
O        4.66614354       1.61483559      13.63952293  F        2       0.01633340      -0.00000899      -0.00652383
Sn       0.00000027       1.61483491      13.63204828  F        3       0.00001194       0.00000081      -0.00385600
Sn       3.41285158       0.00000054      13.93646918  F        4      -0.00000495      -0.00001275      -0.00041080
O        6.82570240       3.22967009      15.10100240  F        5      -0.00001661       0.00001097       0.00304842
O        3.41285172       0.00000015      15.96367047  F        6       0.00001170      -0.00000151       0.00354442
O        1.33539534       1.61483510      17.24202773  F        7      -0.00036761      -0.00000552      -0.00264708
O        5.49030709       1.61483510      17.24202843  F        8       0.00034808      -0.00004675      -0.00264603
Sn       6.82570204       3.22967024      17.17296284  F        9       0.00007664       0.00000853       0.02620342
Sn       3.41285118       1.61483498      17.29794302  F       10      -0.00003178       0.00003516      -0.01183994
O        3.41285153       0.00000003      18.57956262  F       11       0.00004697      -0.00004926       0.00291108
O        6.82570211       0.00000029      19.30782007  F       12       0.00003770      -0.00025077       0.00457595
O        2.09581546       1.61483502      20.64643965  F       13      -0.00570340      -0.00008793       0.00024921
O        4.72988702       1.61483499      20.64644013  F       14       0.00599955      -0.00017281       0.00028278
Sn       6.82570212       1.61483536      20.64643955  F       15       0.00069483       0.00071832      -0.00079341
Sn       3.41285115       3.22967011      20.64643991  F       16      -0.00020326      -0.00003411      -0.00095213
O        6.82570211       0.00000010      21.98505885  F       17       0.00033443      -0.00120814      -0.00256951
O        3.41285109       3.22967028      22.71331588  F       18       0.00024591      -0.00005745      -0.00145418
O        1.33539568       1.61483519      24.05084986  F       19       0.00104107       0.00001708       0.00339534
O        5.49030724       1.61483501      24.05085043  F       20       0.00078960      -0.00135434       0.00406966
Sn       0.00000081       3.22967028      24.11991567  F       21      -0.00320566       0.00001654      -0.02849264
Sn       3.41285108       1.61483508      23.99493530  F       22      -0.00119346       0.00115876       0.00966853
O        3.41285137       0.00000012      25.32920843  F       23       0.00217311      -0.00164662       0.01702626
O       -0.00082189       3.22978012      26.19163449  T       24      -0.00034261       0.00075570       0.00011748
O        2.15750906       1.61532267      27.65518119  T       25       0.00244239      -0.00040029      -0.00015918
O        4.66617279       1.61462897      27.65610405  T       26       0.00051829      -0.00057265       0.00108562
Sn       6.82528225       1.61443969      27.66026961  T       27      -0.00539532       0.00001931       0.00384197
Sn       3.41123946       0.00005691      27.35744210  T       28      -0.00005791      -0.00189693      -0.00030684
O        6.83558829       3.22904374      28.86141942  T       29      -0.00186533       0.00207533      -0.00097394
O        6.82570209       6.45934050      12.43114757  F        0       0.00000867       0.00000085       0.00179940
O        2.15955932       4.84450598      13.63952349  F        1      -0.01633546      -0.00000038      -0.00652703
O        4.66614354       4.84450595      13.63952293  F        2       0.01633045      -0.00000029      -0.00652497
Sn       0.00000027       4.84450527      13.63204828  F        3       0.00001230       0.00000464      -0.00386852
Sn       3.41285158       3.22967091      13.93646918  F        4      -0.00000441      -0.00000432      -0.00039530
O        6.82570240       6.45934046      15.10100240  F        5       0.00001097       0.00003516       0.00309449
O        3.41285172       3.22967052      15.96367047  F        6      -0.00000100      -0.00001218       0.00353792
O        1.33539534       4.84450546      17.24202773  F        7      -0.00036468       0.00001596      -0.00263975
O        5.49030709       4.84450547      17.24202843  F        8       0.00037411       0.00004298      -0.00263787
Sn       6.82570204       6.45934061      17.17296284  F        9      -0.00012203      -0.00022130       0.02594967
Sn       3.41285118       4.84450535      17.29794302  F       10      -0.00000084      -0.00004351      -0.01187417
O        3.41285153       3.22967040      18.57956262  F       11       0.00001475      -0.00000507       0.00286351
O        6.82570211       3.22967066      19.30782007  F       12      -0.00020163      -0.00016949       0.00437776
O        2.09581546       4.84450538      20.64643965  F       13      -0.00576902       0.00013640       0.00024269
O        4.72988702       4.84450536      20.64644013  F       14       0.00608697       0.00019857       0.00033111
Sn       6.82570212       4.84450573      20.64643955  F       15       0.00052313      -0.00121784      -0.00206422
Sn       3.41285115       6.45934047      20.64643991  F       16      -0.00044842      -0.00053589      -0.00154008
O        6.82570211       3.22967047      21.98505885  F       17      -0.00031493       0.00026666      -0.00287230
O        3.41285109       6.45934065      22.71331588  F       18       0.00118298       0.00106938      -0.00022761
O        1.33539568       4.84450555      24.05084986  F       19       0.00092441       0.00144944       0.00410558
O        5.49030724       4.84450537      24.05085043  F       20       0.00243539       0.00707595       0.00631688
Sn       0.00000081       6.45934065      24.11991567  F       21      -0.00490919      -0.00044611      -0.02863234
Sn       3.41285108       4.84450545      23.99493530  F       22      -0.00213814      -0.00227669       0.00857196
O        3.41285137       3.22967049      25.32920843  F       23       0.00322932       0.00133645       0.01535895
O       -0.00238835       6.45977419      26.19158734  T       24       0.00276391      -0.00065211       0.00070709
O        2.15791660       4.84430886      27.65274122  T       25       0.00054449       0.00112639       0.00291487
O        4.66779303       4.84491563      27.65967130  T       26      -0.00036544       0.00221436      -0.00508419
Sn       6.82909090       4.84330675      27.66080972  T       27      -0.00248897      -0.00090596      -0.00283065
Sn       3.41205302       3.22986515      27.35750945  T       28       0.00160082       0.00112182      -0.00198895
O        6.84145208       6.45887638      28.86039196  T       29      -0.00506262      -0.00083863       0.00206840
O        6.82570209       9.68901086      12.43114757  F        0       0.00001095       0.00001937       0.00180691
O        2.15955932       8.07417635      13.63952349  F        1      -0.01634419      -0.00001162      -0.00652178
O        4.66614354       8.07417632      13.63952293  F        2       0.01633435      -0.00000922      -0.00651613
Sn       0.00000027       8.07417564      13.63204828  F        3       0.00000453      -0.00000314      -0.00388181
Sn       3.41285158       6.45934127      13.93646918  F        4      -0.00000045      -0.00001427      -0.00040603
O        6.82570240       9.68901082      15.10100240  F        5       0.00004095       0.00002381       0.00314254
O        3.41285172       6.45934088      15.96367047  F        6       0.00000572       0.00000675       0.00355560
O        1.33539534       8.07417583      17.24202773  F        7      -0.00036366       0.00001975      -0.00261474
O        5.49030709       8.07417583      17.24202843  F        8       0.00045405       0.00006956      -0.00255842
Sn       6.82570204       9.68901097      17.17296284  F        9      -0.00042754      -0.00012077       0.02540164
Sn       3.41285118       8.07417571      17.29794302  F       10      -0.00006980      -0.00005392      -0.01200394
O        3.41285153       6.45934077      18.57956262  F       11       0.00002339       0.00007629       0.00286790
O        6.82570211       6.45934102      19.30782007  F       12       0.00024487       0.00071088       0.00482773
O        2.09581546       8.07417575      20.64643965  F       13      -0.00560042       0.00027128       0.00039407
O        4.72988702       8.07417572      20.64644013  F       14       0.00645448       0.00052541       0.00096277
Sn       6.82570212       8.07417609      20.64643955  F       15      -0.00347989      -0.00239231      -0.00545776
Sn       3.41285115       9.68901084      20.64643991  F       16      -0.00098459      -0.00019750      -0.00258501
O        6.82570211       6.45934083      21.98505885  F       17       0.00119489       0.00307923       0.00082731
O        3.41285109       9.68901101      22.71331588  F       18       0.00217714       0.00044001       0.00094730
O        1.33539568       8.07417592      24.05084986  F       19       0.00234365      -0.00025202       0.00398432
O        5.49030724       8.07417574      24.05085043  F       20       0.00560579       0.00771106       0.01094934
Sn       0.00000081       9.68901101      24.11991567  F       21      -0.00430473      -0.00098484      -0.03057872
Sn       3.41285108       8.07417581      23.99493530  F       22      -0.00822539      -0.00356972       0.00500470
O        3.41285137       6.45934085      25.32920843  F       23       0.00713904       0.00315798       0.01985537
O        0.00001613       9.68913064      26.19151002  T       24      -0.00044231       0.00007996       0.00073141
O        2.15743736       8.07246610      27.65388627  T       25      -0.00040942       0.00197349       0.00186470
O        4.66699311       8.07573039      27.65865771  T       26       0.00387302       0.00165989      -0.00087730
Sn       6.82566755       8.07103800      27.65937144  T       27      -0.00087203      -0.00015308       0.00051001
Sn       3.41282794       6.45864897      27.35759368  T       28      -0.00117379       0.00261316       0.00042152
O        6.86066673       9.68672644      28.85726826  T       29      -0.00327250       0.00231373      -0.00043595
O        6.82570209      12.91868123      12.43114757  F        0       0.00000972       0.00001372       0.00179011
O        2.15955932      11.30384671      13.63952349  F        1      -0.01634672       0.00000204      -0.00652449
O        4.66614354      11.30384668      13.63952293  F        2       0.01633859       0.00000520      -0.00651616
Sn       0.00000027      11.30384601      13.63204828  F        3       0.00000634      -0.00000860      -0.00387231
Sn       3.41285158       9.68901164      13.93646918  F        4      -0.00000481      -0.00000937      -0.00042462
O        6.82570240      12.91868119      15.10100240  F        5       0.00004334      -0.00001939       0.00314134
O        3.41285172       9.68901125      15.96367047  F        6       0.00002205      -0.00000175       0.00358708
O        1.33539534      11.30384619      17.24202773  F        7      -0.00036550      -0.00000913      -0.00259829
O        5.49030709      11.30384620      17.24202843  F        8       0.00051689       0.00000188      -0.00248898
Sn       6.82570204      12.91868134      17.17296284  F        9      -0.00036294       0.00019150       0.02547517
Sn       3.41285118      11.30384608      17.29794302  F       10      -0.00011094       0.00001118      -0.01205650
O        3.41285153       9.68901113      18.57956262  F       11       0.00007265       0.00002973       0.00292988
O        6.82570211       9.68901139      19.30782007  F       12       0.00089448       0.00020514       0.00608162
O        2.09581546      11.30384611      20.64643965  F       13      -0.00553669      -0.00013006       0.00046670
O        4.72988702      11.30384609      20.64644013  F       14       0.00652310      -0.00025240       0.00103841
Sn       6.82570212      11.30384646      20.64643955  F       15      -0.00437530       0.00132030      -0.00578463
Sn       3.41285115      12.91868120      20.64643991  F       16      -0.00067313       0.00042071      -0.00208301
O        6.82570211       9.68901120      21.98505885  F       17       0.00275367       0.00035706       0.00187541
O        3.41285109      12.91868138      22.71331588  F       18       0.00158679      -0.00092701       0.00035317
O        1.33539568      11.30384628      24.05084986  F       19       0.00231402       0.00027858       0.00425901
O        5.49030724      11.30384610      24.05085043  F       20       0.00615489      -0.00808145       0.01320070
Sn       0.00000081      12.91868138      24.11991567  F       21      -0.00360916       0.00099611      -0.02974060
Sn       3.41285108      11.30384618      23.99493530  F       22      -0.00927535       0.00189246       0.00432599
O        3.41285137       9.68901122      25.32920843  F       23       0.00752900       0.00026845       0.01581688
O       -0.00117347      12.91916142      26.19158490  T       24       0.00181784      -0.00072862       0.00044245
O        2.15678050      11.30448809      27.65387778  T       25       0.00382352      -0.00116593       0.00186417
O        4.66624818      11.30085549      27.65909419  T       26      -0.00204951      -0.00112175      -0.00226826
Sn       6.82360791      11.30282951      27.65988752  T       27      -0.00743121       0.00292502      -0.00314391
Sn       3.40761527       9.68817105      27.35728183  T       28       0.00019854      -0.00118987       0.00043237
O        6.84080010      12.91661461      28.85911728  T       29       0.00005488      -0.00040758       0.00289184
O        6.82570209      16.14835159      12.43114757  F        0       0.00000334       0.00000915       0.00178778
O        2.15955932      14.53351708      13.63952349  F        1      -0.01633829       0.00000678      -0.00652669
O        4.66614354      14.53351705      13.63952293  F        2       0.01633692       0.00000467      -0.00652260
Sn       0.00000027      14.53351637      13.63204828  F        3       0.00001091       0.00000531      -0.00385964
Sn       3.41285158      12.91868201      13.93646918  F        4      -0.00000186      -0.00002665      -0.00041866
O        6.82570240      16.14835156      15.10100240  F        5      -0.00000984      -0.00001183       0.00307143
O        3.41285172      12.91868161      15.96367047  F        6       0.00002459       0.00000217       0.00357698
O        1.33539534      14.53351656      17.24202773  F        7      -0.00035821      -0.00001429      -0.00262130
O        5.49030709      14.53351656      17.24202843  F        8       0.00044711      -0.00006735      -0.00252305
Sn       6.82570204      16.14835170      17.17296284  F        9      -0.00004034       0.00015651       0.02589492
Sn       3.41285118      14.53351644      17.29794302  F       10      -0.00007301       0.00005585      -0.01195657
O        3.41285153      12.91868150      18.57956262  F       11       0.00006607      -0.00004609       0.00293796
O        6.82570211      12.91868175      19.30782007  F       12       0.00057628      -0.00049164       0.00508231
O        2.09581546      14.53351648      20.64643965  F       13      -0.00564272      -0.00021337       0.00034146
O        4.72988702      14.53351646      20.64644013  F       14       0.00621503      -0.00030173       0.00041413
Sn       6.82570212      14.53351682      20.64643955  F       15      -0.00133833       0.00145222      -0.00264692
Sn       3.41285115      16.14835157      20.64643991  F       16      -0.00040116       0.00034800      -0.00119148
O        6.82570211      12.91868157      21.98505885  F       17       0.00192659      -0.00278825       0.00137148
O        3.41285109      16.14835175      22.71331588  F       18       0.00047535      -0.00021316      -0.00102050
O        1.33539568      14.53351665      24.05084986  F       19       0.00204267      -0.00104874       0.00366081
O        5.49030724      14.53351647      24.05085043  F       20       0.00274341      -0.00697842       0.00795028
Sn       0.00000081      16.14835174      24.11991567  F       21      -0.00273235       0.00055623      -0.02779730
Sn       3.41285108      14.53351654      23.99493530  F       22      -0.00275569       0.00277060       0.00769303
O        3.41285137      12.91868158      25.32920843  F       23       0.00584881      -0.00652231       0.02012976
O        0.00016133      16.14830399      26.19173095  T       24      -0.00116732       0.00103289       0.00082123
O        2.15810643      14.53359382      27.65575549  T       25      -0.00119889      -0.00094818      -0.00012803
O        4.66662693      14.53175112      27.65509720  T       26       0.00179672      -0.00004767       0.00075158
Sn       6.82475632      14.53289824      27.65997026  T       27       0.00451115       0.00113927       0.00066248
Sn       3.41118527      12.91810149      27.35755689  T       28      -0.00097421       0.00073300      -0.00239968
O        6.83015107      16.14703779      28.86035016  T       29       0.00204709       0.00087994       0.00222260
O       13.65140459       3.22967013      12.43114757  F        0      -0.00002032       0.00000921       0.00175887
O        8.98526182       1.61483561      13.63952349  F        1      -0.01633942      -0.00001156      -0.00654276
O       11.49184604       1.61483559      13.63952293  F        2       0.01634949      -0.00001004      -0.00652723
Sn       6.82570277       1.61483491      13.63204828  F        3       0.00000128       0.00000011      -0.00386181
Sn      10.23855408       0.00000054      13.93646918  F        4      -0.00004052       0.00003473      -0.00044602
O       13.65140490       3.22967009      15.10100240  F        5      -0.00022865      -0.00020861       0.00264537
O       10.23855422       0.00000015      15.96367047  F        6       0.00014482      -0.00018222       0.00367069
O        8.16109784       1.61483510      17.24202773  F        7      -0.00041325      -0.00009264      -0.00261135
O       12.31600959       1.61483510      17.24202843  F        8      -0.00002632      -0.00072964      -0.00316079
Sn      13.65140454       3.22967024      17.17296284  F        9       0.00162721       0.00122596       0.02871104
Sn      10.23855368       1.61483498      17.29794302  F       10       0.00003195       0.00050554      -0.01166778
O       10.23855403       0.00000003      18.57956262  F       11       0.00028500      -0.00098764       0.00345473
O       13.65140461       0.00000029      19.30782007  F       12      -0.00193137      -0.00168239       0.00371888
O        8.92151796       1.61483502      20.64643965  F       13      -0.00695584      -0.00151875      -0.00077801
O       11.55558952       1.61483499      20.64644013  F       14       0.00454279      -0.00316948      -0.00059723
Sn      13.65140462       1.61483536      20.64643955  F       15       0.00576511       0.01098718      -0.00414660
Sn      10.23855365       3.22967011      20.64643991  F       16       0.00055780      -0.00005833       0.00270441
O       13.65140461       0.00000010      21.98505885  F       17      -0.00202442      -0.01051709       0.00619949
O       10.23855359       3.22967028      22.71331588  F       18      -0.00147380      -0.00346507       0.00096064
O        8.16109818       1.61483519      24.05084986  F       19      -0.00280130      -0.00102484       0.00751264
O       12.31600974       1.61483501      24.05085043  F       20       0.02069153      -0.01968595       0.02001574
Sn       6.82570331       3.22967028      24.11991567  F       21      -0.00526786      -0.00224150      -0.03598696
Sn      10.23855358       1.61483508      23.99493530  F       22      -0.00667850       0.01087980      -0.00694864
O       10.23855387       0.00000012      25.32920843  F       23       0.01976847      -0.01562172       0.02407284
O        6.82194086       3.23080549      26.19163800  T       24       0.00413820      -0.00221528       0.00024861
O        8.98372293       1.61504638      27.64556507  T       25       0.00159916      -0.00035171       0.00442485
O       11.49532315       1.61134876      27.66054557  T       26      -0.00103125       0.00324707      -0.00474481
Sn      13.65530512       1.61393064      27.66430987  T       27       0.00124888       0.00407360      -0.00751641
Sn      10.23737031       0.00239965      27.35597691  T       28      -0.00476809       0.00086417      -0.00606543
O       13.64977299       3.21395742      28.88447573  T       29      -0.00076490       0.00307341       0.01185262
O       13.65140459       6.45934050      12.43114757  F        0      -0.00003831       0.00000710       0.00184643
O        8.98526182       4.84450598      13.63952349  F        1      -0.01632693       0.00001501      -0.00653370
O       11.49184604       4.84450595      13.63952293  F        2       0.01635939       0.00002886      -0.00652594
Sn       6.82570277       4.84450527      13.63204828  F        3      -0.00001244      -0.00000891      -0.00388345
Sn      10.23855408       3.22967091      13.93646918  F        4       0.00000288      -0.00001781      -0.00028932
O       13.65140490       6.45934046      15.10100240  F        5      -0.00039940       0.00005534       0.00256765
O       10.23855422       3.22967052      15.96367047  F        6      -0.00004431      -0.00004621       0.00340912
O        8.16109784       4.84450546      17.24202773  F        7      -0.00043675       0.00011402      -0.00268959
O       12.31600959       4.84450547      17.24202843  F        8      -0.00043115       0.00004972      -0.00351869
Sn      13.65140454       6.45934061      17.17296284  F        9       0.00238747      -0.00040455       0.02640337
Sn      10.23855368       4.84450535      17.29794302  F       10       0.00058607      -0.00055752      -0.01149869
O       10.23855403       3.22967040      18.57956262  F       11      -0.00024829      -0.00005788       0.00263339
O       13.65140461       3.22967066      19.30782007  F       12      -0.00269521       0.00104051       0.00108283
O        8.92151796       4.84450538      20.64643965  F       13      -0.00584975       0.00192694       0.00163916
O       11.55558952       4.84450536      20.64644013  F       14       0.00539504       0.00344782       0.00113193
Sn      13.65140462       4.84450573      20.64643955  F       15       0.01384703      -0.01400538      -0.00647951
Sn      10.23855365       6.45934047      20.64643991  F       16      -0.00186896      -0.00890274      -0.01387172
O       13.65140461       3.22967047      21.98505885  F       17      -0.00548806      -0.01134781      -0.01436909
O       10.23855359       6.45934065      22.71331588  F       18       0.01450587       0.02024806       0.02027571
O        8.16109818       4.84450555      24.05084986  F       19       0.00431591       0.00726683       0.00683071
O       12.31600974       4.84450537      24.05085043  F       20      -0.03801671      -0.03167276      -0.04127972
Sn       6.82570331       6.45934065      24.11991567  F       21      -0.01033666      -0.01343443      -0.04470089
Sn      10.23855358       4.84450545      23.99493530  F       22       0.01799226      -0.04272579      -0.01654202
O       10.23855387       3.22967049      25.32920843  F       23       0.02296182       0.00642130       0.04649933
O        6.82613115       6.46201201      26.19183527  T       24       0.00085812      -0.00050137       0.00193971
O        8.99182212       4.84459206      27.64161129  T       25      -0.00864691      -0.01028187      -0.00137818
O       11.50430196       4.84038791      27.67982083  T       26      -0.00724757       0.01568690      -0.00070132
Sn      13.66950430       4.81392929      27.67647581  T       27      -0.00436792       0.01472262      -0.00797713
Sn      10.24068125       3.22656076      27.35764630  T       28       0.00741602       0.00229310      -0.00368011
O       13.68407181       6.48299798      28.83349506  T       29      -0.00920314      -0.00032459       0.01436961
O       13.65140459       9.68901086      12.43114757  F        0      -0.00003457       0.00002488       0.00191593
O        8.98526182       8.07417635      13.63952349  F        1      -0.01630968       0.00000837      -0.00647397
O       11.49184604       8.07417632      13.63952293  F        2       0.01638576       0.00002016      -0.00647242
Sn       6.82570277       8.07417564      13.63204828  F        3      -0.00003389      -0.00001449      -0.00393760
Sn      10.23855408       6.45934127      13.93646918  F        4       0.00003251      -0.00004267      -0.00040793
O       13.65140490       9.68901082      15.10100240  F        5      -0.00038978       0.00030040       0.00263494
O       10.23855422       6.45934088      15.96367047  F        6      -0.00017864       0.00003420       0.00334579
O        8.16109784       8.07417583      17.24202773  F        7      -0.00029978       0.00013536      -0.00243177
O       12.31600959       8.07417583      17.24202843  F        8      -0.00044011       0.00043991      -0.00224095
Sn      13.65140454       9.68901097      17.17296284  F        9       0.00230415      -0.00154700       0.02307367
Sn      10.23855368       8.07417571      17.29794302  F       10       0.00047226      -0.00072510      -0.01331798
O       10.23855403       6.45934077      18.57956262  F       11       0.00002719       0.00151394       0.00360345
O       13.65140461       6.45934102      19.30782007  F       12      -0.00356766       0.00011527       0.00813551
O        8.92151796       8.07417575      20.64643965  F       13      -0.00258510       0.00386982       0.00510162
O       11.55558952       8.07417572      20.64644013  F       14       0.00870404       0.00544849       0.00975407
Sn      13.65140462       8.07417609      20.64643955  F       15       0.02310092      -0.02248790      -0.04472898
Sn      10.23855365       9.68901084      20.64643991  F       16      -0.00528989      -0.00253938      -0.03261400
O       13.65140461       6.45934083      21.98505885  F       17      -0.01621458       0.01984310      -0.00344360
O       10.23855359       9.68901101      22.71331588  F       18       0.02794139       0.00325124       0.05206952
O        8.16109818       8.07417592      24.05084986  F       19       0.02271387       0.00809094       0.01091953
O       12.31600974       8.07417574      24.05085043  F       20       0.07675868       0.12836461       0.12132695
Sn       6.82570331       9.68901101      24.11991567  F       21      -0.02061253      -0.00245484      -0.05988520
Sn      10.23855358       8.07417581      23.99493530  F       22      -0.08210950      -0.05471808      -0.04812830
O       10.23855387       6.45934085      25.32920843  F       23       0.04558513       0.04616709       0.10402595
O        6.83542229       9.68755934      26.19229592  T       24       0.00249260       0.00415220      -0.00019020
O        9.00647798       8.06314545      27.65606040  T       25      -0.00007558      -0.00030284      -0.00202730
O       11.52925662       8.09391774      27.65727443  T       26       0.00768912      -0.00796145       0.00127926
Sn      13.67097326       7.99362164      27.52260551  T       27       0.00758044      -0.00956705      -0.00209112
Sn      10.25842404       6.45233989      27.35761622  T       28       0.00083221       0.00316115       0.01144901
O       13.65637593       9.66957957      28.89288542  T       29       0.00224501       0.01294862      -0.00030017
O       13.65140459      12.91868123      12.43114757  F        0      -0.00001769       0.00001022       0.00185156
O        8.98526182      11.30384671      13.63952349  F        1      -0.01630059      -0.00000054      -0.00643624
O       11.49184604      11.30384668      13.63952293  F        2       0.01637924      -0.00001869      -0.00641454
Sn       6.82570277      11.30384601      13.63204828  F        3      -0.00004196      -0.00001231      -0.00394577
Sn      10.23855408       9.68901164      13.93646918  F        4       0.00001540      -0.00003468      -0.00066864
O       13.65140490      12.91868119      15.10100240  F        5      -0.00021350       0.00010872       0.00311565
O       10.23855422       9.68901125      15.96367047  F        6      -0.00009145       0.00016993       0.00341749
O        8.16109784      11.30384619      17.24202773  F        7      -0.00011498       0.00007690      -0.00231234
O       12.31600959      11.30384620      17.24202843  F        8      -0.00009009       0.00074402      -0.00191119
Sn      13.65140454      12.91868134      17.17296284  F        9       0.00151893      -0.00046869       0.02251051
Sn      10.23855368      11.30384608      17.29794302  F       10      -0.00041731      -0.00033816      -0.01429628
O       10.23855403       9.68901113      18.57956262  F       11       0.00064768       0.00065153       0.00574999
O       13.65140461       9.68901139      19.30782007  F       12      -0.00338567       0.00035283       0.01121548
O        8.92151796      11.30384611      20.64643965  F       13      -0.00125145      -0.00240020       0.00588560
O       11.55558952      11.30384609      20.64644013  F       14       0.00958984      -0.00112672       0.01065772
Sn      13.65140462      11.30384646      20.64643955  F       15       0.01285739       0.00817705      -0.05520591
Sn      10.23855365      12.91868120      20.64643991  F       16      -0.00598344       0.00617420      -0.01917709
O       13.65140461       9.68901120      21.98505885  F       17      -0.01561343       0.01473527       0.03813763
O       10.23855359      12.91868138      22.71331588  F       18       0.01852038      -0.01307938       0.02429530
O        8.16109818      11.30384628      24.05084986  F       19       0.02248107      -0.00721711       0.01046102
O       12.31600974      11.30384610      24.05085043  F       20       0.08777285      -0.07082795       0.11769848
Sn       6.82570331      12.91868138      24.11991567  F       21      -0.01248006       0.01171153      -0.04715604
Sn      10.23855358      11.30384618      23.99493530  F       22      -0.09687121       0.03933230      -0.06067179
O       10.23855387       9.68901122      25.32920843  F       23       0.03376731       0.01047920       0.05670744
O        6.82771647      12.91495504      26.19171778  T       24       0.00171655       0.00044375       0.00161237
O        9.00147946      11.30852457      27.65283994  T       25       0.00052494       0.00804137      -0.00267264
O       11.52491876      11.28785539      27.67058168  T       26      -0.00944507      -0.00855611      -0.00756831
Sn      13.66124487      11.37795060      27.56136739  T       27      -0.01265770       0.00014827      -0.00493847
Sn      10.22996617       9.68748319      27.35408756  T       28       0.00357874      -0.00250551       0.00217149
O       13.64359915      12.90427159      28.85805176  T       29       0.01438919       0.00498383       0.00064152
O       13.65140459      16.14835159      12.43114757  F        0      -0.00000776       0.00000619       0.00177890
O        8.98526182      14.53351708      13.63952349  F        1      -0.01631662      -0.00002093      -0.00648574
O       11.49184604      14.53351705      13.63952293  F        2       0.01635316      -0.00003170      -0.00645134
Sn       6.82570277      14.53351637      13.63204828  F        3      -0.00001751       0.00001034      -0.00390080
Sn      10.23855408      12.91868201      13.93646918  F        4      -0.00005038       0.00000273      -0.00072527
O       13.65140490      16.14835156      15.10100240  F        5      -0.00010701      -0.00022212       0.00304949
O       10.23855422      12.91868161      15.96367047  F        6       0.00010474       0.00002063       0.00394680
O        8.16109784      14.53351656      17.24202773  F        7      -0.00016400      -0.00023073      -0.00243124
O       12.31600959      14.53351656      17.24202843  F        8       0.00023796      -0.00050213      -0.00255083
Sn      13.65140454      16.14835170      17.17296284  F        9       0.00100568       0.00120583       0.02574703
Sn      10.23855368      14.53351644      17.29794302  F       10      -0.00062767       0.00111589      -0.01305906
O       10.23855403      12.91868150      18.57956262  F       11       0.00050741      -0.00110795       0.00470854
O       13.65140461      12.91868175      19.30782007  F       12      -0.00249672       0.00023385       0.01261892
O        8.92151796      14.53351648      20.64643965  F       13      -0.00389554      -0.00186316       0.00288775
O       11.55558952      14.53351646      20.64644013  F       14       0.00892467      -0.00466538       0.00464878
Sn      13.65140462      14.53351682      20.64643955  F       15       0.00515417       0.01691406      -0.02313519
Sn      10.23855365      16.14835157      20.64643991  F       16      -0.00177266       0.00528282      -0.00334600
O       13.65140461      12.91868157      21.98505885  F       17      -0.00497579      -0.01492188       0.01809831
O       10.23855359      16.14835175      22.71331588  F       18       0.00359636      -0.00655575       0.00403332
O        8.16109818      14.53351665      24.05084986  F       19       0.00753643      -0.00908008       0.00723074
O       12.31600974      14.53351647      24.05085043  F       20       0.00765480      -0.02125530       0.01446440
Sn       6.82570331      16.14835174      24.11991567  F       21      -0.00579995       0.00611329      -0.03888130
Sn      10.23855358      14.53351654      23.99493530  F       22      -0.02137157       0.04673363      -0.02228727
O       10.23855387      12.91868158      25.32920843  F       23       0.06391858      -0.05702791       0.13651335
O        6.82470719      16.14657695      26.19143174  T       24       0.00239485      -0.00049426      -0.00054991
O        8.98971212      14.53348189      27.64835810  T       25      -0.00455323       0.01195934       0.00138424
O       11.50342075      14.53243727      27.65674172  T       26       0.00357091      -0.00793911      -0.00196371
Sn      13.65469534      14.56059060      27.67777547  T       27       0.00380053      -0.00825786       0.00981379
Sn      10.24638436      12.92231927      27.35963364  T       28       0.00511879       0.00214970       0.00395215
O       13.65958512      16.15921468      28.88362403  T       29      -0.00085928       0.00193675      -0.00687629
O       20.47710709       3.22967013      12.43114757  F        0       0.00002370       0.00000065       0.00173104
O       15.81096432       1.61483561      13.63952349  F        1      -0.01641691      -0.00008029      -0.00670841
O       18.31754854       1.61483559      13.63952293  F        2       0.01639265      -0.00008012      -0.00673318
Sn      13.65140527       1.61483491      13.63204828  F        3       0.00007205       0.00010326      -0.00376239
Sn      17.06425658       0.00000054      13.93646918  F        4       0.00005675       0.00004899      -0.00002247
O       20.47710740       3.22967009      15.10100240  F        5       0.00022382      -0.00036733       0.00213367
O       17.06425672       0.00000015      15.96367047  F        6      -0.00027138      -0.00021131       0.00275984
O       14.98680034       1.61483510      17.24202773  F        7      -0.00146207      -0.00098424      -0.00366480
O       19.14171209       1.61483510      17.24202843  F        8       0.00095344      -0.00093995      -0.00420918
Sn      20.47710704       3.22967024      17.17296284  F        9      -0.00143090       0.00197326       0.03117839
Sn      17.06425618       1.61483498      17.29794302  F       10       0.00057878       0.00324761      -0.00599221
O       17.06425653       0.00000003      18.57956262  F       11      -0.00074390      -0.00115547      -0.00110579
O       20.47710711       0.00000029      19.30782007  F       12       0.00161886      -0.00038785       0.00154891
O       15.74722046       1.61483502      20.64643965  F       13      -0.00926895      -0.00502831      -0.00264322
O       18.38129202       1.61483499      20.64644013  F       14       0.00486718      -0.00463165      -0.00442362
Sn      20.47710712       1.61483536      20.64643955  F       15      -0.00471961       0.00936651       0.01306678
Sn      17.06425615       3.22967011      20.64643991  F       16       0.00522635       0.01685755       0.01954038
O       20.47710711       0.00000010      21.98505885  F       17       0.00219212      -0.00159960      -0.01406223
O       17.06425609       3.22967028      22.71331588  F       18      -0.00833993      -0.00126532      -0.01275017
O       14.98680068       1.61483519      24.05084986  F       19      -0.04770140      -0.01872762       0.02393862
O       19.14171224       1.61483501      24.05085043  F       20       0.01252349      -0.01527985      -0.00115912
Sn      13.65140581       3.22967028      24.11991567  F       21       0.01822917       0.04352924      -0.00545740
Sn      17.06425608       1.61483508      23.99493530  F       22       0.02476612       0.04167922       0.02894441
O       17.06425637       0.00000012      25.32920843  F       23      -0.01969281      -0.01485334       0.01344274
O       13.64053120       3.22281691      26.19911960  T       24       0.00476422      -0.00662810       0.00079471
O       15.80771087       1.61726556      27.64543631  T       25       0.01011527       0.01083982       0.00979776
O       18.31535546       1.61676200      27.65886158  T       26      -0.00468659      -0.00085775      -0.00493415
Sn      20.47152776       1.61614643      27.66072588  T       27       0.00014306       0.00135636       0.00252295
Sn      17.06369240       0.00440236      27.35727429  T       28      -0.00376413       0.00015572      -0.00851357
O       20.47008263       3.23001757      28.86561075  T       29       0.00270731       0.00379780      -0.00239807
O       20.47710709       6.45934050      12.43114757  F        0       0.00003576      -0.00000852       0.00174767
O       15.81096432       4.84450598      13.63952349  F        1      -0.01651105      -0.00006741      -0.00696534
O       18.31754854       4.84450595      13.63952293  F        2       0.01646155      -0.00007279      -0.00700200
Sn      13.65140527       4.84450527      13.63204828  F        3       0.00016784      -0.00004782      -0.00351778
Sn      17.06425658       3.22967091      13.93646918  F        4       0.00005417       0.00017395       0.00089508
O       20.47710740       6.45934046      15.10100240  F        5       0.00033919      -0.00018947       0.00177920
O       17.06425672       3.22967052      15.96367047  F        6      -0.00026111      -0.00042616       0.00171453
O       14.98680034       4.84450546      17.24202773  F        7      -0.00252980      -0.00035165      -0.00419553
O       19.14171209       4.84450547      17.24202843  F        8       0.00164890      -0.00103765      -0.00500248
Sn      20.47710704       6.45934061      17.17296284  F        9      -0.00181697       0.00083598       0.03312874
Sn      17.06425618       4.84450535      17.29794302  F       10       0.00106448       0.00295525      -0.00121762
O       17.06425653       3.22967040      18.57956262  F       11      -0.00068064      -0.00294394      -0.00186669
O       20.47710711       3.22967066      19.30782007  F       12       0.00244311      -0.00003911      -0.00039113
O       15.74722046       4.84450538      20.64643965  F       13      -0.02010992      -0.00850536      -0.00906196
O       18.38129202       4.84450536      20.64644013  F       14       0.01022274      -0.01180809      -0.01160853
Sn      20.47710712       4.84450573      20.64643955  F       15      -0.01146234       0.00624784       0.02267954
Sn      17.06425615       6.45934047      20.64643991  F       16       0.01060928       0.00472350       0.06493558
O       20.47710711       3.22967047      21.98505885  F       17       0.00525168      -0.01689307      -0.03138256
O       17.06425609       6.45934065      22.71331588  F       18      -0.02359812      -0.00059831      -0.19781163
O       14.98680068       4.84450555      24.05084986  F       19      -0.13278900      -0.03428917       0.00041135
O       19.14171224       4.84450537      24.05085043  F       20       0.10931001      -0.04665782      -0.01242103
Sn      13.65140581       6.45934065      24.11991567  F       21       0.07915246      -0.22048178      -0.45901471
Sn      17.06425608       4.84450545      23.99493530  F       22       0.03180647       0.31691208       0.30882251
O       17.06425637       3.22967049      25.32920843  F       23      -0.01731197      -0.15507197      -0.18137018
O       13.56790852       6.39969974      26.16485150  T       24       0.00084476       0.00681224      -0.01377654
O       15.79552719       4.83380510      27.60318672  T       25      -0.00310749       0.00819949       0.00132788
O       18.32198535       4.83303223      27.60342713  T       26       0.00078410       0.00224848      -0.00265466
Sn      20.45655387       4.84407242      27.65915749  T       27      -0.00362435      -0.00289902      -0.00012660
Sn      17.06881530       3.23852134      27.34473444  T       28      -0.00550277       0.01104289       0.00111312
O       20.42326470       6.48392802      28.83449126  T       29       0.00657730       0.00138264       0.00011766
O       20.47710709       9.68901086      12.43114757  F        0       0.00003120       0.00002585       0.00176054
O       15.81096432       8.07417635      13.63952349  F        1      -0.01658288       0.00002347      -0.00704698
O       18.31754854       8.07417632      13.63952293  F        2       0.01648307       0.00001246      -0.00709780
Sn      13.65140527       8.07417564      13.63204828  F        3       0.00021180      -0.00009373      -0.00358066
Sn      17.06425658       6.45934127      13.93646918  F        4       0.00009563       0.00004837       0.00185728
O       20.47710740       9.68901082      15.10100240  F        5       0.00030258       0.00028045       0.00184989
O       17.06425672       6.45934088      15.96367047  F        6      -0.00036458      -0.00011769       0.00084791
O       14.98680034       8.07417583      17.24202773  F        7      -0.00316313       0.00045979      -0.00306242
O       19.14171209       8.07417583      17.24202843  F        8       0.00175071       0.00022754      -0.00490830
Sn      20.47710704       9.68901097      17.17296284  F        9      -0.00146471      -0.00140383       0.03223312
Sn      17.06425618       8.07417571      17.29794302  F       10       0.00186219      -0.00101974      -0.00054436
O       17.06425653       6.45934077      18.57956262  F       11      -0.00125142      -0.00016358       0.00197120
O       20.47710711       6.45934102      19.30782007  F       12       0.00270454       0.00048642      -0.00193148
O       15.74722046       8.07417575      20.64643965  F       13      -0.03130967       0.00728876      -0.01134030
O       18.38129202       8.07417572      20.64644013  F       14       0.01436335       0.00577977      -0.01805451
Sn      20.47710712       8.07417609      20.64643955  F       15      -0.01543072      -0.00404448       0.02289774
Sn      17.06425615       9.68901084      20.64643991  F       16       0.01331909      -0.01845813       0.03766793
O       20.47710711       6.45934083      21.98505885  F       17       0.01375389      -0.00644000      -0.03982494
O       17.06425609       9.68901101      22.71331588  F       18      -0.03602479       0.02683703      -0.14597279
O       14.98680068       8.07417592      24.05084986  F       19      -0.36577702       0.12203261       0.11409129
O       19.14171224       8.07417574      24.05085043  F       20       0.21877922       0.02554322      -0.02116668
Sn      13.65140581       9.68901101      24.11991567  F       21       0.05401183      -0.02969363      -0.33539701
Sn      17.06425608       8.07417581      23.99493530  F       22       0.13105987      -0.09877820       0.60719961
O       17.06425637       6.45934085      25.32920843  F       23      -0.07074453      -0.35180473       0.14294598
O       13.56816722       9.70680252      26.23819322  T       24      -0.00310217       0.01512503       0.00619572
O       15.72519793       8.09016748      27.30627124  T       25       0.00580485      -0.01527026       0.01553585
O       18.37226542       8.07137353      27.29502478  T       26       0.00766200      -0.00905262       0.00097378
Sn      20.44506490       8.06994438      27.59188231  T       27      -0.00229141      -0.00151292       0.00283010
Sn      17.05432245       6.48225057      27.43650815  T       28      -0.00476682       0.01139138       0.00786338
O       20.39624841       9.66418053      28.83575213  T       29      -0.00092044       0.00454542      -0.00357562
O       20.47710709      12.91868123      12.43114757  F        0       0.00001620       0.00002684       0.00174910
O       15.81096432      11.30384671      13.63952349  F        1      -0.01652771       0.00007616      -0.00683368
O       18.31754854      11.30384668      13.63952293  F        2       0.01642656       0.00008590      -0.00688375
Sn      13.65140527      11.30384601      13.63204828  F        3       0.00016213      -0.00011890      -0.00395298
Sn      17.06425658       9.68901164      13.93646918  F        4       0.00011232      -0.00013879       0.00153655
O       20.47710740      12.91868119      15.10100240  F        5       0.00014807       0.00034594       0.00228447
O       17.06425672       9.68901125      15.96367047  F        6      -0.00043621       0.00034493       0.00096816
O       14.98680034      11.30384619      17.24202773  F        7      -0.00273120       0.00116002      -0.00252802
O       19.14171209      11.30384620      17.24202843  F        8       0.00127868       0.00126685      -0.00448827
Sn      20.47710704      12.91868134      17.17296284  F        9      -0.00090899      -0.00166348       0.03006333
Sn      17.06425618      11.30384608      17.29794302  F       10       0.00197911      -0.00393014      -0.00467041
O       17.06425653       9.68901113      18.57956262  F       11      -0.00187882       0.00275012       0.00414596
O       20.47710711       9.68901139      19.30782007  F       12       0.00198040       0.00052665      -0.00035331
O       15.74722046      11.30384611      20.64643965  F       13      -0.02233237       0.00956540       0.00148173
O       18.38129202      11.30384609      20.64644013  F       14       0.00436826       0.01025348      -0.00552206
Sn      20.47710712      11.30384646      20.64643955  F       15      -0.00529088      -0.00576420       0.01652818
Sn      17.06425615      12.91868120      20.64643991  F       16       0.01166298      -0.00925796      -0.00447769
O       20.47710711       9.68901120      21.98505885  F       17       0.01179511       0.01246866      -0.03786324
O       17.06425609      12.91868138      22.71331588  F       18      -0.02667591      -0.01860629       0.01359853
O       14.98680068      11.30384628      24.05084986  F       19      -0.23913932      -0.05052271       0.15090470
O       19.14171224      11.30384610      24.05085043  F       20       0.08726119       0.04082850       0.00105426
Sn      13.65140581      12.91868138      24.11991567  F       21       0.01508945       0.17238100      -0.43230444
Sn      17.06425608      11.30384618      23.99493530  F       22       0.14660852      -0.28748930       0.22485647
O       17.06425637       9.68901122      25.32920843  F       23      -0.05930163       0.43760580       0.02997034
O       13.63834914      12.95834190      26.17789321  T       24      -0.00026832      -0.00171051      -0.01009482
O       15.77336597      11.29982988      27.60309328  T       25       0.00262502       0.00090955       0.01894247
O       18.31390929      11.32251025      27.59920246  T       26       0.00921291      -0.00116695      -0.00152120
Sn      20.46205595      11.30640799      27.65470777  T       27       0.00070211       0.00536965      -0.00559169
Sn      17.07690508       9.66329711      27.41675260  T       28       0.00060842      -0.01020361      -0.02520508
O       20.45037289      12.91558435      28.86394621  T       29      -0.00053367      -0.00043042      -0.00203294
O       20.47710709      16.14835159      12.43114757  F        0       0.00001115       0.00001481       0.00175238
O       15.81096432      14.53351708      13.63952349  F        1      -0.01641405       0.00002850      -0.00661789
O       18.31754854      14.53351705      13.63952293  F        2       0.01636213       0.00003316      -0.00665835
Sn      13.65140527      14.53351637      13.63204828  F        3       0.00006563       0.00013389      -0.00408137
Sn      17.06425658      12.91868201      13.93646918  F        4       0.00010308      -0.00017996       0.00036389
O       20.47710740      16.14835156      15.10100240  F        5       0.00009812      -0.00003095       0.00251728
O       17.06425672      12.91868161      15.96367047  F        6      -0.00038756       0.00041496       0.00238293
O       14.98680034      14.53351656      17.24202773  F        7      -0.00162554      -0.00027572      -0.00303739
O       19.14171209      14.53351656      17.24202843  F        8       0.00066510       0.00048043      -0.00396603
Sn      20.47710704      16.14835170      17.17296284  F        9      -0.00077932       0.00025246       0.02858979
Sn      17.06425618      14.53351644      17.29794302  F       10       0.00119703      -0.00124775      -0.00768759
O       17.06425653      12.91868150      18.57956262  F       11      -0.00141562       0.00153063       0.00045262
O       20.47710711      12.91868175      19.30782007  F       12       0.00153930      -0.00060874       0.00064474
O       15.74722046      14.53351648      20.64643965  F       13      -0.01349074      -0.00322599       0.00279115
O       18.38129202      14.53351646      20.64644013  F       14       0.00199530       0.00044265      -0.00044937
Sn      20.47710712      14.53351682      20.64643955  F       15      -0.00225975      -0.00575298       0.01050169
Sn      17.06425615      16.14835157      20.64643991  F       16       0.00583749       0.00598361       0.00821892
O       20.47710711      12.91868157      21.98505885  F       17       0.00219230       0.01249070      -0.02461847
O       17.06425609      16.14835175      22.71331588  F       18      -0.00978199      -0.00808253       0.00151290
O       14.98680068      14.53351665      24.05084986  F       19      -0.03396475      -0.02675512       0.02396657
O       19.14171224      14.53351647      24.05085043  F       20       0.00251895      -0.00216007       0.00136742
Sn      13.65140581      16.14835174      24.11991567  F       21       0.00720653       0.03664240      -0.02676910
Sn      17.06425608      14.53351654      23.99493530  F       22       0.03928687       0.02276685       0.00963053
O       17.06425637      12.91868158      25.32920843  F       23      -0.07198552       0.09413947      -0.07356389
O       13.64925019      16.14487195      26.19950628  T       24      -0.00077610       0.00117175       0.00367939
O       15.80252036      14.52575161      27.65185479  T       25       0.00141737      -0.00362411      -0.00101522
O       18.31134261      14.53710691      27.65294509  T       26       0.00212675      -0.00814528       0.00574774
Sn      20.47125310      14.53268472      27.66081882  T       27       0.00625726       0.00350066       0.00218347
Sn      17.06563198      12.91406335      27.34700144  T       28      -0.00467192       0.00094860       0.00362402
O       20.46825415      16.14776230      28.86056652  T       29       0.00310340       0.00208753       0.00203609
O       27.30280959       3.22967013      12.43114757  F        0       0.00000765       0.00000877       0.00178248
O       22.63666682       1.61483561      13.63952349  F        1      -0.01633611      -0.00000960      -0.00656591
O       25.14325104       1.61483559      13.63952293  F        2       0.01634869      -0.00001117      -0.00654864
Sn      20.47710777       1.61483491      13.63204828  F        3      -0.00007754       0.00009245      -0.00348181
Sn      23.88995908       0.00000054      13.93646918  F        4      -0.00001703      -0.00001776      -0.00030202
O       27.30280990       3.22967009      15.10100240  F        5       0.00001229       0.00000176       0.00300831
O       23.88995922       0.00000015      15.96367047  F        6       0.00011553      -0.00000099       0.00331475
O       21.81250284       1.61483510      17.24202773  F        7       0.00036512      -0.00066831      -0.00381190
O       25.96741459       1.61483510      17.24202843  F        8       0.00054331      -0.00007406      -0.00283494
Sn      27.30280954       3.22967024      17.17296284  F        9      -0.00016354       0.00010099       0.02664305
Sn      23.88995868       1.61483498      17.29794302  F       10      -0.00061557       0.00039861      -0.01054506
O       23.88995902       0.00000003      18.57956262  F       11       0.00035641      -0.00010014       0.00152237
O       27.30280961       0.00000029      19.30782007  F       12       0.00023654      -0.00007378       0.00378864
O       22.57292296       1.61483502      20.64643965  F       13      -0.00191552      -0.00265389      -0.00275227
O       25.20699452       1.61483499      20.64644013  F       14       0.00754929      -0.00131736      -0.00160630
Sn      27.30280962       1.61483536      20.64643955  F       15      -0.00137197       0.00065810       0.00166522
Sn      23.88995865       3.22967011      20.64643991  F       16      -0.00503996       0.00343475       0.00866752
O       27.30280961       0.00000010      21.98505885  F       17       0.00025392       0.00000177      -0.00545149
O       23.88995859       3.22967028      22.71331588  F       18       0.00778128      -0.00798948      -0.00792486
O       21.81250318       1.61483519      24.05084986  F       19       0.00567248      -0.01577518      -0.00470961
O       25.96741474       1.61483501      24.05085043  F       20       0.00220102      -0.00087039       0.00033343
Sn      20.47710831       3.22967028      24.11991567  F       21      -0.01873425       0.05373434      -0.01574612
Sn      23.88995858       1.61483508      23.99493530  F       22      -0.01235729       0.00782709       0.01480282
O       23.88995887       0.00000012      25.32920843  F       23      -0.01021459      -0.00030739       0.01206519
O       20.48019850       3.22548260      26.19209364  T       24       0.00447665      -0.00470151       0.00282323
O       22.63080537       1.61533569      27.66033847  T       25       0.00367361      -0.00095431       0.00036900
O       25.13727083       1.61816593      27.65169719  T       26       0.00162858      -0.00185944       0.00078619
Sn      27.29609705       1.61856140      27.66103197  T       27       0.00234427      -0.00146608       0.00057220
Sn      23.88389814       0.00153049      27.35706683  T       28       0.00058900      -0.00014434       0.00107360
O       27.29215432       3.23370354      28.86140731  T       29       0.00245004      -0.00035674      -0.00068921
O       27.30280959       6.45934050      12.43114757  F        0       0.00001053      -0.00000565       0.00180173
O       22.63666682       4.84450598      13.63952349  F        1      -0.01633888      -0.00001170      -0.00662652
O       25.14325104       4.84450595      13.63952293  F        2       0.01635748      -0.00001952      -0.00658376
Sn      20.47710777       4.84450527      13.63204828  F        3      -0.00015000       0.00015255      -0.00303322
Sn      23.88995908       3.22967091      13.93646918  F        4      -0.00006157       0.00003215      -0.00017834
O       27.30280990       6.45934046      15.10100240  F        5       0.00003529      -0.00000955       0.00298142
O       23.88995922       3.22967052      15.96367047  F        6       0.00029464      -0.00019755       0.00309601
O       21.81250284       4.84450546      17.24202773  F        7       0.00086108      -0.00084665      -0.00445607
O       25.96741459       4.84450547      17.24202843  F        8       0.00075911      -0.00014880      -0.00301363
Sn      27.30280954       6.45934061      17.17296284  F        9      -0.00029984       0.00005528       0.02682161
Sn      23.88995868       4.84450535      17.29794302  F       10      -0.00163315       0.00071967      -0.00949200
O       23.88995902       3.22967040      18.57956262  F       11       0.00083375      -0.00071199       0.00087487
O       27.30280961       3.22967066      19.30782007  F       12       0.00040830      -0.00028788       0.00368575
O       22.57292296       4.84450538      20.64643965  F       13       0.00027648      -0.00248000      -0.00517866
O       25.20699452       4.84450536      20.64644013  F       14       0.00875238      -0.00057778      -0.00223398
Sn      27.30280962       4.84450573      20.64643955  F       15      -0.00261249       0.00037286       0.00169786
Sn      23.88995865       6.45934047      20.64643991  F       16      -0.00771753       0.00009835       0.00998442
O       27.30280961       3.22967047      21.98505885  F       17       0.00085168      -0.00030185      -0.00543270
O       23.88995859       6.45934065      22.71331588  F       18       0.00635729       0.00003674      -0.00767710
O       21.81250318       4.84450555      24.05084986  F       19       0.03664993      -0.04429001      -0.03924954
O       25.96741474       4.84450537      24.05085043  F       20       0.00425526      -0.00104962       0.00002751
Sn      20.47710831       6.45934065      24.11991567  F       21      -0.05961795      -0.01496007      -0.12231787
Sn      23.88995858       4.84450545      23.99493530  F       22      -0.03926895       0.00605358       0.01801218
O       23.88995887       3.22967049      25.32920843  F       23      -0.01074155       0.00681999       0.03498346
O       20.54794611       6.43853243      26.17811302  T       24       0.00275454      -0.00154353       0.00337124
O       22.62933857       4.84664133      27.68306086  T       25       0.00076824      -0.00297845       0.00160087
O       25.13674370       4.84863213      27.64598260  T       26       0.00661132      -0.00302662      -0.00165619
Sn      27.29482735       4.84784004      27.65972821  T       27       0.00380866       0.00031239       0.00002137
Sn      23.88079968       3.23343421      27.35870253  T       28       0.00189830       0.00015246       0.00027162
O       27.29615226       6.46234435      28.86116923  T       29       0.00175039       0.00004811       0.00029641
O       27.30280959       9.68901086      12.43114757  F        0       0.00000876       0.00002192       0.00180638
O       22.63666682       8.07417635      13.63952349  F        1      -0.01635611      -0.00000883      -0.00666389
O       25.14325104       8.07417632      13.63952293  F        2       0.01637790      -0.00000841      -0.00660940
Sn      20.47710777       8.07417564      13.63204828  F        3      -0.00016271      -0.00002278      -0.00280181
Sn      23.88995908       6.45934127      13.93646918  F        4      -0.00013413       0.00001827       0.00005651
O       27.30280990       9.68901082      15.10100240  F        5       0.00003318       0.00001516       0.00298363
O       23.88995922       6.45934088      15.96367047  F        6       0.00051904      -0.00013328       0.00262995
O       21.81250284       8.07417583      17.24202773  F        7       0.00101429       0.00013645      -0.00442629
O       25.96741459       8.07417583      17.24202843  F        8       0.00089537       0.00002790      -0.00302485
Sn      27.30280954       9.68901097      17.17296284  F        9      -0.00027522      -0.00009978       0.02669868
Sn      23.88995868       8.07417571      17.29794302  F       10      -0.00219980      -0.00010916      -0.00910817
O       23.88995902       6.45934077      18.57956262  F       11       0.00108888      -0.00020743       0.00026900
O       27.30280961       6.45934102      19.30782007  F       12       0.00057878       0.00003126       0.00375547
O       22.57292296       8.07417575      20.64643965  F       13      -0.00021616       0.00077319      -0.00453948
O       25.20699452       8.07417572      20.64644013  F       14       0.00944304       0.00035238      -0.00256943
Sn      27.30280962       8.07417609      20.64643955  F       15      -0.00283819      -0.00018171       0.00156856
Sn      23.88995865       9.68901084      20.64643991  F       16      -0.00695872      -0.00141308       0.00864808
O       27.30280961       6.45934083      21.98505885  F       17       0.00139513       0.00016786      -0.00560747
O       23.88995859       9.68901101      22.71331588  F       18       0.00474024       0.00136322      -0.00524332
O       21.81250318       8.07417592      24.05084986  F       19       0.02260385       0.01477247      -0.00446802
O       25.96741474       8.07417574      24.05085043  F       20       0.00357033       0.00198086       0.00194030
Sn      20.47710831       9.68901101      24.11991567  F       21      -0.03661765      -0.01399375      -0.12893516
Sn      23.88995858       8.07417581      23.99493530  F       22      -0.03712150      -0.00495040       0.02825391
O       23.88995887       6.45934085      25.32920843  F       23       0.00350632       0.00253403       0.01349749
O       20.54385936       9.71228380      26.18199391  T       24       0.00195709       0.00271487       0.00133580
O       22.62663050       8.07860178      27.67791801  T       25       0.00596422       0.00150104       0.00270028
O       25.13478080       8.07466677      27.64986743  T       26       0.00115082      -0.00183885      -0.00030442
Sn      27.29531457       8.07692866      27.66046831  T       27       0.00126508      -0.00165740      -0.00048873
Sn      23.87527260       6.46174378      27.35723702  T       28      -0.00011419      -0.00309820       0.00097454
O       27.29220573       9.69248868      28.86049638  T       29       0.00257075      -0.00273303       0.00030577
O       27.30280959      12.91868123      12.43114757  F        0       0.00000746       0.00001821       0.00179148
O       22.63666682      11.30384671      13.63952349  F        1      -0.01635230       0.00000216      -0.00661396
O       25.14325104      11.30384668      13.63952293  F        2       0.01636669       0.00001549      -0.00658017
Sn      20.47710777      11.30384601      13.63204828  F        3      -0.00011250      -0.00016670      -0.00314224
Sn      23.88995908       9.68901164      13.93646918  F        4      -0.00012119      -0.00003509       0.00002223
O       27.30280990      12.91868119      15.10100240  F        5       0.00000953       0.00002177       0.00301641
O       23.88995922       9.68901125      15.96367047  F        6       0.00048809       0.00015624       0.00269128
O       21.81250284      11.30384619      17.24202773  F        7       0.00066806       0.00091524      -0.00422575
O       25.96741459      11.30384620      17.24202843  F        8       0.00074130       0.00016539      -0.00293969
Sn      27.30280954      12.91868134      17.17296284  F        9      -0.00013610      -0.00007927       0.02646689
Sn      23.88995868      11.30384608      17.29794302  F       10      -0.00140027      -0.00075251      -0.00983552
O       23.88995902       9.68901113      18.57956262  F       11       0.00099898       0.00044180       0.00044289
O       27.30280961       9.68901139      19.30782007  F       12       0.00053780       0.00010649       0.00387973
O       22.57292296      11.30384611      20.64643965  F       13      -0.00043282       0.00257085      -0.00428676
O       25.20699452      11.30384609      20.64644013  F       14       0.00838438       0.00057761      -0.00195432
Sn      27.30280962      11.30384646      20.64643955  F       15      -0.00221787      -0.00035726       0.00137730
Sn      23.88995865      12.91868120      20.64643991  F       16      -0.00425793      -0.00264001       0.00697004
O       27.30280961       9.68901120      21.98505885  F       17       0.00118825       0.00050106      -0.00565145
O       23.88995859      12.91868138      22.71331588  F       18       0.00613428       0.00584903      -0.00586624
O       21.81250318      11.30384628      24.05084986  F       19       0.02429958       0.03599389      -0.02933948
O       25.96741474      11.30384610      24.05085043  F       20       0.00319079       0.00367994       0.00096723
Sn      20.47710831      12.91868138      24.11991567  F       21      -0.00144291      -0.03108018      -0.04187530
Sn      23.88995858      11.30384618      23.99493530  F       22      -0.02763348      -0.00609942       0.01294897
O       23.88995887       9.68901122      25.32920843  F       23      -0.00150443       0.01277566       0.01410531
O       20.48090810      12.92235344      26.19201899  T       24       0.00299511       0.00550434       0.00010663
O       22.63108440      11.30335456      27.69172435  T       25      -0.00051790      -0.00173194      -0.00303996
O       25.13912353      11.30432369      27.64149082  T       26       0.00128937      -0.00017535       0.00253204
Sn      27.29715470      11.30670235      27.65900962  T       27       0.00096680      -0.00310868       0.00093544
Sn      23.88047696       9.68974192      27.35742761  T       28       0.00287777      -0.00160335      -0.00047109
O       27.28688361      12.92162979      28.86014597  T       29       0.00825162      -0.00367165       0.00067717
O       27.30280959      16.14835159      12.43114757  F        0       0.00000631       0.00001460       0.00178719
O       22.63666682      14.53351708      13.63952349  F        1      -0.01633635       0.00000750      -0.00656407
O       25.14325104      14.53351705      13.63952293  F        2       0.01635054       0.00001092      -0.00654774
Sn      20.47710777      14.53351637      13.63204828  F        3      -0.00004830      -0.00007592      -0.00355327
Sn      23.88995908      12.91868201      13.93646918  F        4      -0.00004799      -0.00005444      -0.00020891
O       27.30280990      16.14835156      15.10100240  F        5       0.00000643       0.00000989       0.00302064
O       23.88995922      12.91868161      15.96367047  F        6       0.00025368       0.00017951       0.00316964
O       21.81250284      14.53351656      17.24202773  F        7       0.00021495       0.00047286      -0.00364672
O       25.96741459      14.53351656      17.24202843  F        8       0.00053032       0.00002862      -0.00279472
Sn      27.30280954      16.14835170      17.17296284  F        9      -0.00006927       0.00001611       0.02640243
Sn      23.88995868      14.53351644      17.29794302  F       10      -0.00052649      -0.00024531      -0.01072872
O       23.88995902      12.91868150      18.57956262  F       11       0.00071958       0.00057130       0.00107265
O       27.30280961      12.91868175      19.30782007  F       12       0.00034611       0.00019240       0.00384553
O       22.57292296      14.53351648      20.64643965  F       13      -0.00234179       0.00173368      -0.00252114
O       25.20699452      14.53351646      20.64644013  F       14       0.00738086       0.00088304      -0.00137262
Sn      27.30280962      14.53351682      20.64643955  F       15      -0.00116227      -0.00011282       0.00145311
Sn      23.88995865      16.14835157      20.64643991  F       16      -0.00321766       0.00060313       0.00374253
O       27.30280961      12.91868157      21.98505885  F       17       0.00069820       0.00046278      -0.00524294
O       23.88995859      16.14835175      22.71331588  F       18       0.00406717      -0.00053661      -0.00556954
O       21.81250318      14.53351665      24.05084986  F       19       0.00351574       0.00952299      -0.00174426
O       25.96741474      14.53351647      24.05085043  F       20       0.00201946       0.00069056       0.00150912
Sn      20.47710831      16.14835174      24.11991567  F       21      -0.00487789       0.00870314      -0.02253394
Sn      23.88995858      14.53351654      23.99493530  F       22      -0.01058756      -0.00258089       0.01249776
O       23.88995887      12.91868158      25.32920843  F       23      -0.01768613      -0.00692635       0.04519236
O       20.47606391      16.14648277      26.19218063  T       24      -0.00064333       0.00143066      -0.00051808
O       22.63125770      14.53253469      27.66490157  T       25       0.00276184       0.00018772      -0.00222328
O       25.13872197      14.53553292      27.64792023  T       26      -0.00121284      -0.00208018       0.00341467
Sn      27.29732645      14.53683525      27.66009207  T       27      -0.00340755      -0.00337013       0.00138390
Sn      23.88378093      12.91849131      27.35897958  T       28      -0.00218126      -0.00267221      -0.00037837
O       27.29498365      16.15172269      28.86118177  T       29       0.00017437      -0.00237253      -0.00046062
O       34.12851209       3.22967013      12.43114757  F        0      -0.00000127       0.00000474       0.00178057
O       29.46236932       1.61483561      13.63952349  F        1      -0.01633519      -0.00000267      -0.00652861
O       31.96895354       1.61483559      13.63952293  F        2       0.01633132      -0.00000355      -0.00652649
Sn      27.30281027       1.61483491      13.63204828  F        3      -0.00001422      -0.00000565      -0.00384277
Sn      30.71566158       0.00000054      13.93646918  F        4       0.00000093      -0.00001777      -0.00038546
O       34.12851240       3.22967009      15.10100240  F        5       0.00000205       0.00001307       0.00305021
O       30.71566172       0.00000015      15.96367047  F        6      -0.00000038       0.00000601       0.00348639
O       28.63820534       1.61483510      17.24202773  F        7      -0.00031863      -0.00003491      -0.00274520
O       32.79311709       1.61483510      17.24202843  F        8       0.00041097      -0.00000583      -0.00268309
Sn      34.12851204       3.22967024      17.17296284  F        9      -0.00003677      -0.00000811       0.02622606
Sn      30.71566118       1.61483498      17.29794302  F       10      -0.00005150       0.00002503      -0.01151863
O       30.71566152       0.00000003      18.57956262  F       11       0.00000317      -0.00002706       0.00257712
O       34.12851211       0.00000029      19.30782007  F       12       0.00011464      -0.00004601       0.00423796
O       29.39862546       1.61483502      20.64643965  F       13      -0.00568599      -0.00016812      -0.00026530
O       32.03269702       1.61483499      20.64644013  F       14       0.00615602      -0.00006821      -0.00011923
Sn      34.12851212       1.61483536      20.64643955  F       15      -0.00046050       0.00012605      -0.00000096
Sn      30.71566115       3.22967011      20.64643991  F       16      -0.00036528       0.00015441       0.00067959
O       34.12851211       0.00000010      21.98505885  F       17       0.00040903      -0.00017789      -0.00410456
O       30.71566109       3.22967028      22.71331588  F       18       0.00063101      -0.00043520      -0.00325065
O       28.63820568       1.61483519      24.05084986  F       19       0.00079577       0.00041311       0.00133118
O       32.79311724       1.61483501      24.05085043  F       20       0.00032693      -0.00080137       0.00219892
Sn      27.30281081       3.22967028      24.11991567  F       21      -0.00499234       0.00137558      -0.02640542
Sn      30.71566108       1.61483508      23.99493530  F       22      -0.00138737       0.00126084       0.01248731
O       30.71566137       0.00000012      25.32920843  F       23      -0.00515470       0.00290958       0.01304063
O       27.30345955       3.23053160      26.19139937  T       24      -0.00098610       0.00110729       0.00006360
O       29.45734571       1.61752218      27.65872937  T       25       0.00073379      -0.00245606      -0.00308549
O       31.96581337       1.61596835      27.65342330  T       26       0.00107801       0.00036814       0.00101702
Sn      34.12517924       1.61524127      27.66098053  T       27       0.00349171       0.00110692       0.00039330
Sn      30.71024388       0.00216379      27.35745690  T       28       0.00201468      -0.00172753       0.00031620
O       34.12366929       3.23031526      28.86128810  T       29       0.00329759       0.00042187       0.00036538
O       34.12851209       6.45934050      12.43114757  F        0      -0.00000260      -0.00000110       0.00179076
O       29.46236932       4.84450598      13.63952349  F        1      -0.01632708      -0.00000459      -0.00652846
O       31.96895354       4.84450595      13.63952293  F        2       0.01632291      -0.00000373      -0.00652449
Sn      27.30281027       4.84450527      13.63204828  F        3      -0.00001904       0.00001139      -0.00385091
Sn      30.71566158       3.22967091      13.93646918  F        4       0.00000137      -0.00000231      -0.00037920
O       34.12851240       6.45934046      15.10100240  F        5       0.00000189       0.00000460       0.00305867
O       30.71566172       3.22967052      15.96367047  F        6       0.00000603      -0.00000994       0.00348052
O       28.63820534       4.84450546      17.24202773  F        7      -0.00027473      -0.00002613      -0.00281154
O       32.79311709       4.84450547      17.24202843  F        8       0.00041358       0.00001507      -0.00268032
Sn      34.12851204       6.45934061      17.17296284  F        9      -0.00005161      -0.00003049       0.02617860
Sn      30.71566118       4.84450535      17.29794302  F       10      -0.00009674       0.00000407      -0.01149040
O       30.71566152       3.22967040      18.57956262  F       11       0.00003282      -0.00002089       0.00253154
O       34.12851211       3.22967066      19.30782007  F       12       0.00011365       0.00000699       0.00420462
O       29.39862546       4.84450538      20.64643965  F       13      -0.00568159      -0.00004772      -0.00024722
O       32.03269702       4.84450536      20.64644013  F       14       0.00627081       0.00000531      -0.00018325
Sn      34.12851212       4.84450573      20.64643955  F       15      -0.00057738      -0.00014690       0.00002772
Sn      30.71566115       6.45934047      20.64643991  F       16      -0.00044305      -0.00009964       0.00078253
O       34.12851211       3.22967047      21.98505885  F       17       0.00036898       0.00003048      -0.00419044
O       30.71566109       6.45934065      22.71331588  F       18       0.00063222      -0.00029772      -0.00333070
O       28.63820568       4.84450555      24.05084986  F       19       0.00034353       0.00023132       0.00129566
O       32.79311724       4.84450537      24.05085043  F       20       0.00027606      -0.00043428       0.00118822
Sn      27.30281081       6.45934065      24.11991567  F       21      -0.00740510       0.00085103      -0.02620542
Sn      30.71566108       4.84450545      23.99493530  F       22      -0.00119799       0.00029340       0.01340539
O       30.71566137       3.22967049      25.32920843  F       23      -0.00274887       0.00181358       0.00956404
O       27.30394047       6.46106253      26.19125915  T       24      -0.00079656       0.00018159      -0.00003898
O       29.45622750       4.84576146      27.65586200  T       25       0.00200579       0.00069877       0.00086197
O       31.96524900       4.84661082      27.65449219  T       26      -0.00029123      -0.00146749       0.00117938
Sn      34.12537749       4.84492548      27.66046370  T       27      -0.00088952       0.00031703       0.00119561
Sn      30.71149936       3.23166384      27.35733147  T       28      -0.00074457      -0.00146286      -0.00033492
O       34.12764671       6.45950859      28.86140341  T       29      -0.00072672       0.00033479       0.00055134
O       34.12851209       9.68901086      12.43114757  F        0      -0.00000094       0.00002120       0.00179607
O       29.46236932       8.07417635      13.63952349  F        1      -0.01633751      -0.00000742      -0.00652530
O       31.96895354       8.07417632      13.63952293  F        2       0.01633683      -0.00000835      -0.00652626
Sn      27.30281027       8.07417564      13.63204828  F        3      -0.00002534      -0.00000277      -0.00385445
Sn      30.71566158       6.45934127      13.93646918  F        4      -0.00000339      -0.00000648      -0.00037277
O       34.12851240       9.68901082      15.10100240  F        5       0.00000462       0.00000110       0.00306040
O       30.71566172       6.45934088      15.96367047  F        6       0.00001575      -0.00000534       0.00348619
O       28.63820534       8.07417583      17.24202773  F        7      -0.00024682       0.00001820      -0.00281486
O       32.79311709       8.07417583      17.24202843  F        8       0.00042906       0.00001740      -0.00265631
Sn      34.12851204       9.68901097      17.17296284  F        9      -0.00005661       0.00000234       0.02609515
Sn      30.71566118       8.07417571      17.29794302  F       10      -0.00012065      -0.00001504      -0.01152959
O       30.71566152       6.45934077      18.57956262  F       11       0.00005897       0.00002218       0.00254007
O       34.12851211       6.45934102      19.30782007  F       12       0.00013348       0.00005324       0.00426875
O       29.39862546       8.07417575      20.64643965  F       13      -0.00567057       0.00010972      -0.00020081
O       32.03269702       8.07417572      20.64644013  F       14       0.00627270       0.00009105      -0.00015617
Sn      34.12851212       8.07417609      20.64643955  F       15      -0.00069227      -0.00020657      -0.00018515
Sn      30.71566115       9.68901084      20.64643991  F       16      -0.00045528      -0.00016286       0.00049236
O       34.12851211       6.45934083      21.98505885  F       17       0.00041854       0.00026276      -0.00407827
O       30.71566109       9.68901101      22.71331588  F       18       0.00072745      -0.00013110      -0.00278142
O       28.63820568       8.07417592      24.05084986  F       19       0.00172068       0.00061259       0.00008800
O       32.79311724       8.07417574      24.05085043  F       20      -0.00015032       0.00136510       0.00130158
Sn      27.30281081       9.68901101      24.11991567  F       21      -0.00578929      -0.00174016      -0.02896294
Sn      30.71566108       8.07417581      23.99493530  F       22      -0.00148750      -0.00142907       0.01266902
O       30.71566137       6.45934085      25.32920843  F       23      -0.00390196       0.00430294       0.00946638
O       27.30413127       9.69041047      26.19106306  T       24      -0.00012323      -0.00176729       0.00050271
O       29.45619602       8.07664750      27.65718618  T       25       0.00163034      -0.00177534      -0.00116976
O       31.96461464       8.07507725      27.65484821  T       26       0.00153753       0.00007098       0.00079162
Sn      34.12436257       8.07416245      27.66086156  T       27       0.00027063       0.00011257      -0.00015429
Sn      30.70892507       6.46087287      27.35728793  T       28       0.00327527      -0.00015587      -0.00031048
O       34.12622110       9.68956695      28.86071082  T       29       0.00213538      -0.00056786       0.00098705
O       34.12851209      12.91868123      12.43114757  F        0      -0.00000147       0.00001770       0.00178128
O       29.46236932      11.30384671      13.63952349  F        1      -0.01633930       0.00000514      -0.00652961
O       31.96895354      11.30384668      13.63952293  F        2       0.01633739       0.00000317      -0.00652909
Sn      27.30281027      11.30384601      13.63204828  F        3      -0.00002004      -0.00001798      -0.00385928
Sn      30.71566158       9.68901164      13.93646918  F        4      -0.00000359      -0.00001231      -0.00037760
O       34.12851240      12.91868119      15.10100240  F        5       0.00000002       0.00000213       0.00305337
O       30.71566172       9.68901125      15.96367047  F        6       0.00001481      -0.00000377       0.00349872
O       28.63820534      11.30384619      17.24202773  F        7      -0.00029832       0.00004221      -0.00276493
O       32.79311709      11.30384620      17.24202843  F        8       0.00043763      -0.00001060      -0.00264128
Sn      34.12851204      12.91868134      17.17296284  F        9      -0.00005474       0.00002199       0.02610536
Sn      30.71566118      11.30384608      17.29794302  F       10      -0.00009098      -0.00001397      -0.01157445
O       30.71566152       9.68901113      18.57956262  F       11       0.00005240       0.00001903       0.00259240
O       34.12851211       9.68901139      19.30782007  F       12       0.00014504       0.00002498       0.00432747
O       29.39862546      11.30384611      20.64643965  F       13      -0.00567138       0.00008388      -0.00019172
O       32.03269702      11.30384609      20.64644013  F       14       0.00622728       0.00003261      -0.00007202
Sn      34.12851212      11.30384646      20.64643955  F       15      -0.00068210       0.00004555      -0.00035918
Sn      30.71566115      12.91868120      20.64643991  F       16      -0.00033357       0.00001102       0.00023200
O       34.12851211       9.68901120      21.98505885  F       17       0.00059658       0.00018013      -0.00403296
O       30.71566109      12.91868138      22.71331588  F       18       0.00073385      -0.00030472      -0.00255734
O       28.63820568      11.30384628      24.05084986  F       19       0.00199924      -0.00001645       0.00060556
O       32.79311724      11.30384610      24.05085043  F       20       0.00000139       0.00042001       0.00232951
Sn      27.30281081      12.91868138      24.11991567  F       21      -0.00202476      -0.00095672      -0.03104407
Sn      30.71566108      11.30384618      23.99493530  F       22      -0.00152834      -0.00068125       0.01142802
O       30.71566137       9.68901122      25.32920843  F       23      -0.00384590       0.00417549       0.01196225
O       27.30633652      12.92074374      26.19088511  T       24      -0.00286404      -0.00212706       0.00124037
O       29.45754430      11.30643783      27.65911715  T       25       0.00233033      -0.00212698      -0.00219670
O       31.96552482      11.30510899      27.65277179  T       26       0.00146797      -0.00254410       0.00240931
Sn      34.12439017      11.30454595      27.66030493  T       27       0.00007740      -0.00075370       0.00116703
Sn      30.71038700       9.69058710      27.35737222  T       28       0.00033187      -0.00188916       0.00024796
O       34.12508596      12.91915827      28.86123698  T       29       0.00121141      -0.00012078      -0.00016171
O       34.12851209      16.14835159      12.43114757  F        0      -0.00000072       0.00000775       0.00178266
O       29.46236932      14.53351708      13.63952349  F        1      -0.01633549       0.00000834      -0.00652979
O       31.96895354      14.53351705      13.63952293  F        2       0.01633483       0.00000619      -0.00652886
Sn      27.30281027      14.53351637      13.63204828  F        3      -0.00001442      -0.00000888      -0.00385311
Sn      30.71566158      12.91868201      13.93646918  F        4      -0.00000242      -0.00002855      -0.00037551
O       34.12851240      16.14835156      15.10100240  F        5      -0.00000012       0.00000612       0.00304866
O       30.71566172      12.91868161      15.96367047  F        6       0.00000604       0.00001169       0.00349867
O       28.63820534      14.53351656      17.24202773  F        7      -0.00033326       0.00001035      -0.00272012
O       32.79311709      14.53351656      17.24202843  F        8       0.00041871      -0.00001459      -0.00265971
Sn      34.12851204      16.14835170      17.17296284  F        9      -0.00004290       0.00001433       0.02620159
Sn      30.71566118      14.53351644      17.29794302  F       10      -0.00004602       0.00001488      -0.01156468
O       30.71566152      12.91868150      18.57956262  F       11       0.00002492      -0.00000429       0.00259211
O       34.12851211      12.91868175      19.30782007  F       12       0.00013900      -0.00005622       0.00432485
O       29.39862546      14.53351648      20.64643965  F       13      -0.00568765      -0.00006078      -0.00021850
O       32.03269702      14.53351646      20.64644013  F       14       0.00615785      -0.00011588      -0.00005533
Sn      34.12851212      14.53351682      20.64643955  F       15      -0.00055390       0.00028520      -0.00021548
Sn      30.71566115      16.14835157      20.64643991  F       16      -0.00022276       0.00017482       0.00047131
O       34.12851211      12.91868157      21.98505885  F       17       0.00038073      -0.00015600      -0.00390695
O       30.71566109      16.14835175      22.71331588  F       18       0.00079429      -0.00027833      -0.00283745
O       28.63820568      14.53351665      24.05084986  F       19       0.00134833       0.00324622       0.00079580
O       32.79311724      14.53351647      24.05085043  F       20      -0.00037259       0.00064673       0.00192619
Sn      27.30281081      16.14835174      24.11991567  F       21      -0.00330180       0.00119525      -0.02680619
Sn      30.71566108      14.53351654      23.99493530  F       22      -0.00163150       0.00071063       0.01148649
O       30.71566137      12.91868158      25.32920843  F       23      -0.00376283       0.00341180       0.00955689
O       27.30262805      16.15032050      26.19149203  T       24       0.00048114      -0.00187124       0.00030977
O       29.45728736      14.53541742      27.65808948  T       25       0.00113106      -0.00202926      -0.00090469
O       31.96551453      14.53551071      27.65388054  T       26       0.00209931      -0.00169787       0.00107960
Sn      34.12551147      14.53420211      27.66094721  T       27      -0.00071135       0.00009460       0.00085369
Sn      30.71136656      12.92074136      27.35714617  T       28       0.00197554      -0.00179072       0.00075603
O       34.12617281      16.14883910      28.86168076  T       29       0.00006251       0.00086563      -0.00038427
O       17.12156564       6.95174022      29.58928828  T        0       0.02717441      -0.00909665       0.00668842
O       17.01945397       9.24552441      29.57430648  T        0       0.00536096      -0.01499754      -0.01956314
C       18.33375520       8.19348259      31.23801030  T        0      -0.01940671       0.00997471       0.00692452
C       17.42301884       8.10783619      30.04212871  T        0       0.01526338       0.00554329      -0.01412523
H       17.91187991       8.86621198      31.99513867  T        0      -0.01278903       0.01578039       0.00196968
H       18.54218138       7.19757343      31.63959979  T        0       0.00099617      -0.01778981      -0.00679504
H       19.26730451       8.65294533      30.86222471  T        0       0.00463316      -0.01786906       0.02037016
H       14.41023581       9.65793591      29.51539003  T        0       0.01094410       0.00122971       0.00385848
