758
Lattice="34.12851249988762 0.0 0.0 0.0 16.14835182838364 0.0 0.0 0.0 41.29287865270102" Properties=species:S:1:pos:R:3:move_mask:L:1:spacegroup_kinds:I:1:forces:R:3 spacegroup="P 1" unit_cell=conventional occupancy="_JSON {\"0\": {\"O\": 1.0}, \"1\": {\"O\": 1.0}, \"2\": {\"O\": 1.0}, \"3\": {\"Sn\": 1.0}, \"4\": {\"Sn\": 1.0}, \"5\": {\"O\": 1.0}, \"6\": {\"O\": 1.0}, \"7\": {\"O\": 1.0}, \"8\": {\"O\": 1.0}, \"9\": {\"Sn\": 1.0}, \"10\": {\"Sn\": 1.0}, \"11\": {\"O\": 1.0}, \"12\": {\"O\": 1.0}, \"13\": {\"O\": 1.0}, \"14\": {\"O\": 1.0}, \"15\": {\"Sn\": 1.0}, \"16\": {\"Sn\": 1.0}, \"17\": {\"O\": 1.0}, \"18\": {\"O\": 1.0}, \"19\": {\"O\": 1.0}, \"20\": {\"O\": 1.0}, \"21\": {\"Sn\": 1.0}, \"22\": {\"Sn\": 1.0}, \"23\": {\"O\": 1.0}, \"24\": {\"O\": 1.0}, \"25\": {\"O\": 1.0}, \"26\": {\"O\": 1.0}, \"27\": {\"Sn\": 1.0}, \"28\": {\"Sn\": 1.0}, \"29\": {\"O\": 1.0}}" energy=-4686.63330078125 free_energy=-4686.63330078125 stress="-0.0011825773399323225 -6.81289384374395e-06 2.690266956051346e-05 -6.81289384374395e-06 0.007694752886891365 4.135680683248211e-06 2.690266956051346e-05 4.135680683248211e-06 -5.202848115004599e-05" pbc="T T T"
O        6.82570209       3.22967013      12.43114757  F        0       0.00000373       0.00001182       0.00177580
O        2.15955932       1.61483561      13.63952349  F        1      -0.01634526      -0.00000804      -0.00653493
O        4.66614354       1.61483559      13.63952293  F        2       0.01633406      -0.00000855      -0.00653382
Sn       0.00000027       1.61483491      13.63204828  F        3       0.00001932       0.00000079      -0.00385740
Sn       3.41285158       0.00000054      13.93646918  F        4      -0.00000236      -0.00001367      -0.00037557
O        6.82570240       3.22967009      15.10100240  F        5      -0.00002027      -0.00000318       0.00298905
O        3.41285172       0.00000015      15.96367047  F        6      -0.00000696      -0.00000053       0.00348994
O        1.33539534       1.61483510      17.24202773  F        7      -0.00042911      -0.00000506      -0.00266975
O        5.49030709       1.61483510      17.24202843  F        8       0.00033122      -0.00003429      -0.00276157
Sn       6.82570204       3.22967024      17.17296284  F        9       0.00024089       0.00011636       0.02671592
Sn       3.41285118       1.61483498      17.29794302  F       10       0.00005874       0.00002534      -0.01153422
O        3.41285153       0.00000003      18.57956262  F       11      -0.00003133      -0.00002355       0.00259668
O        6.82570211       0.00000029      19.30782007  F       12      -0.00025655      -0.00004737       0.00377795
O        2.09581546       1.61483502      20.64643965  F       13      -0.00616230      -0.00008206      -0.00009671
O        4.72988702       1.61483499      20.64644013  F       14       0.00557878      -0.00016348      -0.00025457
Sn       6.82570212       1.61483536      20.64643955  F       15       0.00166599       0.00072411       0.00186092
Sn       3.41285115       3.22967011      20.64643991  F       16       0.00048306       0.00015158       0.00066353
O        6.82570211       0.00000010      21.98505885  F       17      -0.00040845      -0.00024392      -0.00554005
O        3.41285109       3.22967028      22.71331588  F       18      -0.00084929      -0.00028303      -0.00322045
O        1.33539568       1.61483519      24.05084986  F       19      -0.00063388      -0.00012109       0.00216956
O        5.49030724       1.61483501      24.05085043  F       20      -0.00100048      -0.00145797       0.00116904
Sn       0.00000081       3.22967028      24.11991567  F       21       0.00344494       0.00005167      -0.02691387
Sn       3.41285108       1.61483508      23.99493530  F       22       0.00191868       0.00096639       0.01289236
O        3.41285137       0.00000012      25.32920843  F       23       0.00248983      -0.00059833       0.01139066
O        0.00076562       3.22997876      26.19181950  T       24      -0.00003509      -0.00075735      -0.00026691
O        2.16230520       1.61500160      27.65457494  T       25      -0.00104633       0.00030955       0.00018799
O        4.67075403       1.61479189      27.65713211  T       26       0.00124231       0.00068232      -0.00053192
Sn       6.83203584       1.61540435      27.66077008  T       27      -0.00127659       0.00056718      -0.00046355
Sn       3.41701170       0.00020016      27.35738247  T       28      -0.00008198       0.00040162       0.00029051
O        6.83433513       3.23020926      28.86131022  T       29      -0.00238890       0.00158062       0.00045782
O        6.82570209       6.45934050      12.43114757  F        0       0.00000055       0.00000046       0.00179130
O        2.15955932       4.84450598      13.63952349  F        1      -0.01633915      -0.00000118      -0.00653404
O        4.66614354       4.84450595      13.63952293  F        2       0.01633319      -0.00000007      -0.00653429
Sn       0.00000027       4.84450527      13.63204828  F        3       0.00001906       0.00000626      -0.00387365
Sn       3.41285158       3.22967091      13.93646918  F        4      -0.00000219      -0.00000364      -0.00036371
O        6.82570240       6.45934046      15.10100240  F        5      -0.00004898      -0.00000949       0.00295657
O        3.41285172       3.22967052      15.96367047  F        6      -0.00001753      -0.00000942       0.00348550
O        1.33539534       4.84450546      17.24202773  F        7      -0.00043601       0.00001596      -0.00266728
O        5.49030709       4.84450547      17.24202843  F        8       0.00027037      -0.00003815      -0.00284404
Sn       6.82570204       6.45934061      17.17296284  F        9       0.00045194       0.00008427       0.02701390
Sn       3.41285118       4.84450535      17.29794302  F       10       0.00011628       0.00000671      -0.01150194
O        3.41285153       3.22967040      18.57956262  F       11      -0.00005611      -0.00001946       0.00256151
O        6.82570211       3.22967066      19.30782007  F       12      -0.00050356      -0.00032136       0.00359188
O        2.09581546       4.84450538      20.64643965  F       13      -0.00627656       0.00001235      -0.00014567
O        4.72988702       4.84450536      20.64644013  F       14       0.00546850      -0.00009021      -0.00030362
Sn       6.82570212       4.84450573      20.64643955  F       15       0.00328380       0.00060059       0.00223449
Sn       3.41285115       6.45934047      20.64643991  F       16       0.00069351      -0.00007703       0.00073956
O        6.82570211       3.22967047      21.98505885  F       17      -0.00105441      -0.00073523      -0.00584973
O        3.41285109       6.45934065      22.71331588  F       18      -0.00105044       0.00004246      -0.00318193
O        1.33539568       4.84450555      24.05084986  F       19      -0.00071961       0.00041014       0.00193168
O        5.49030724       4.84450537      24.05085043  F       20      -0.00174637      -0.00153869      -0.00008687
Sn       0.00000081       6.45934065      24.11991567  F       21       0.00380270      -0.00097630      -0.02746332
Sn       3.41285108       4.84450545      23.99493530  F       22       0.00263151       0.00009900       0.01314167
O        3.41285137       3.22967049      25.32920843  F       23       0.00215252      -0.00013708       0.01072080
O        0.00043039       6.45948881      26.19181468  T       24       0.00043862      -0.00096517      -0.00041103
O        2.16260106       4.84481715      27.65465663  T       25       0.00018641      -0.00039015      -0.00010011
O        4.67117778       4.84409499      27.65759753  T       26       0.00013837      -0.00014118      -0.00160724
Sn       6.83289248       4.84502625      27.66023976  T       27       0.00026527       0.00030844      -0.00196445
Sn       3.41729110       3.22978613      27.35740542  T       28      -0.00050213      -0.00032722      -0.00014055
O        6.83252822       6.45932731      28.86155785  T       29      -0.00455678       0.00066650       0.00165397
O        6.82570209       9.68901086      12.43114757  F        0      -0.00000098       0.00001869       0.00179577
O        2.15955932       8.07417635      13.63952349  F        1      -0.01634866      -0.00001175      -0.00653151
O        4.66614354       8.07417632      13.63952293  F        2       0.01633596      -0.00000862      -0.00653182
Sn       0.00000027       8.07417564      13.63204828  F        3       0.00001135      -0.00000227      -0.00388730
Sn       3.41285158       6.45934127      13.93646918  F        4       0.00000626      -0.00001062      -0.00036478
O        6.82570240       9.68901082      15.10100240  F        5      -0.00004671       0.00002082       0.00295687
O        3.41285172       6.45934088      15.96367047  F        6      -0.00003086      -0.00000453       0.00348505
O        1.33539534       8.07417583      17.24202773  F        7      -0.00045070       0.00001766      -0.00264158
O        5.49030709       8.07417583      17.24202843  F        8       0.00022621       0.00001478      -0.00285984
Sn       6.82570204       9.68901097      17.17296284  F        9       0.00043113      -0.00010941       0.02690092
Sn       3.41285118       8.07417571      17.29794302  F       10       0.00015235      -0.00001655      -0.01152597
O        3.41285153       6.45934077      18.57956262  F       11      -0.00009359       0.00001803       0.00255384
O        6.82570211       6.45934102      19.30782007  F       12      -0.00077855      -0.00007345       0.00350397
O        2.09581546       8.07417575      20.64643965  F       13      -0.00629867       0.00010860      -0.00010539
O        4.72988702       8.07417572      20.64644013  F       14       0.00540691       0.00010866      -0.00026535
Sn       6.82570212       8.07417609      20.64643955  F       15       0.00390659      -0.00026867       0.00221045
Sn       3.41285115       9.68901084      20.64643991  F       16       0.00067820      -0.00018600       0.00036764
O        6.82570211       6.45934083      21.98505885  F       17      -0.00167582      -0.00007572      -0.00610101
O        3.41285109       9.68901101      22.71331588  F       18      -0.00102281       0.00033112      -0.00271166
O        1.33539568       8.07417592      24.05084986  F       19      -0.00055538       0.00023223       0.00247138
O        5.49030724       8.07417574      24.05085043  F       20      -0.00265276       0.00062655      -0.00102987
Sn       0.00000081       9.68901101      24.11991567  F       21       0.00426827      -0.00041858      -0.02889363
Sn       3.41285108       8.07417581      23.99493530  F       22       0.00341939      -0.00132422       0.01243545
O        3.41285137       6.45934085      25.32920843  F       23       0.00198878       0.00051488       0.01218379
O        0.00012839       9.68894147      26.19174995  T       24       0.00018618       0.00021748      -0.00035155
O        2.16298124       8.07392313      27.65455918  T       25      -0.00006148       0.00024469       0.00002301
O        4.67114224       8.07421613      27.65810667  T       26       0.00187907      -0.00006690      -0.00149336
Sn       6.83294908       8.07386056      27.66056699  T       27      -0.00118878       0.00023037      -0.00210550
Sn       3.41839818       6.45909946      27.35746174  T       28      -0.00047312       0.00003605      -0.00035900
O        6.83471449       9.68891939      28.86110916  T       29      -0.00518765       0.00017406       0.00150788
O        6.82570209      12.91868123      12.43114757  F        0       0.00000157       0.00001460       0.00178081
O        2.15955932      11.30384671      13.63952349  F        1      -0.01635042       0.00000244      -0.00653370
O        4.66614354      11.30384668      13.63952293  F        2       0.01633999       0.00000431      -0.00653205
Sn       0.00000027      11.30384601      13.63204828  F        3       0.00001493      -0.00000838      -0.00388077
Sn       3.41285158       9.68901164      13.93646918  F        4       0.00000827      -0.00001006      -0.00036848
O        6.82570240      12.91868119      15.10100240  F        5      -0.00002002       0.00002156       0.00299489
O        3.41285172       9.68901125      15.96367047  F        6      -0.00002997      -0.00000306       0.00349557
O        1.33539534      11.30384619      17.24202773  F        7      -0.00045206      -0.00001016      -0.00262924
O        5.49030709      11.30384620      17.24202843  F        8       0.00028421       0.00004885      -0.00280061
Sn       6.82570204      12.91868134      17.17296284  F        9       0.00022821      -0.00009768       0.02657130
Sn       3.41285118      11.30384608      17.29794302  F       10       0.00011480      -0.00001412      -0.01157585
O        3.41285153       9.68901113      18.57956262  F       11      -0.00009102       0.00002527       0.00259094
O        6.82570211       9.68901139      19.30782007  F       12      -0.00075263       0.00017208       0.00358607
O        2.09581546      11.30384611      20.64643965  F       13      -0.00622656       0.00002522      -0.00004272
O        4.72988702      11.30384609      20.64644013  F       14       0.00546813       0.00013123      -0.00018225
Sn       6.82570212      11.30384646      20.64643955  F       15       0.00302858      -0.00074812       0.00178411
Sn       3.41285115      12.91868120      20.64643991  F       16       0.00047284      -0.00002706       0.00018262
O        6.82570211       9.68901120      21.98505885  F       17      -0.00154666       0.00055248      -0.00598982
O        3.41285109      12.91868138      22.71331588  F       18      -0.00081215       0.00010050      -0.00252789
O        1.33539568      11.30384628      24.05084986  F       19      -0.00018249      -0.00011487       0.00268631
O        5.49030724      11.30384610      24.05085043  F       20      -0.00207077       0.00170882       0.00082783
Sn       0.00000081      12.91868138      24.11991567  F       21       0.00382757       0.00063261      -0.02769925
Sn       3.41285108      11.30384618      23.99493530  F       22       0.00244446      -0.00051308       0.01159940
O        3.41285137       9.68901122      25.32920843  F       23       0.00171027       0.00061308       0.01211204
O        0.00034590      12.91845558      26.19177944  T       24       0.00077904       0.00133408      -0.00011599
O        2.16278610      11.30348906      27.65492910  T       25       0.00107017       0.00042687      -0.00042705
O        4.67060446      11.30396051      27.65768460  T       26       0.00103205       0.00017758      -0.00150763
Sn       6.83146940      11.30353764      27.66019901  T       27       0.00060840       0.00001023      -0.00191101
Sn       3.41795812       9.68866150      27.35739034  T       28       0.00019602       0.00024539      -0.00000322
O        6.83404731      12.91846180      28.86116450  T       29      -0.00274584      -0.00143820       0.00035590
O        6.82570209      16.14835159      12.43114757  F        0       0.00000243       0.00001025       0.00178206
O        2.15955932      14.53351708      13.63952349  F        1      -0.01634216       0.00000718      -0.00653535
O        4.66614354      14.53351705      13.63952293  F        2       0.01633772       0.00000403      -0.00653227
Sn       0.00000027      14.53351637      13.63204828  F        3       0.00001684       0.00000549      -0.00386596
Sn       3.41285158      12.91868201      13.93646918  F        4       0.00000627      -0.00002997      -0.00037259
O        6.82570240      16.14835156      15.10100240  F        5      -0.00001400       0.00000864       0.00300419
O        3.41285172      12.91868161      15.96367047  F        6      -0.00001357       0.00001044       0.00349994
O        1.33539534      14.53351656      17.24202773  F        7      -0.00043425      -0.00001220      -0.00264891
O        5.49030709      14.53351656      17.24202843  F        8       0.00033168       0.00001110      -0.00274254
Sn       6.82570204      16.14835170      17.17296284  F        9       0.00013442       0.00002203       0.02645232
Sn       3.41285118      14.53351644      17.29794302  F       10       0.00005399       0.00000709      -0.01157132
O        3.41285153      12.91868150      18.57956262  F       11      -0.00005479       0.00000319       0.00261202
O        6.82570211      12.91868175      19.30782007  F       12      -0.00044521       0.00026123       0.00374504
O        2.09581546      14.53351648      20.64643965  F       13      -0.00615181      -0.00008266      -0.00002942
O        4.72988702      14.53351646      20.64644013  F       14       0.00559072      -0.00001731      -0.00017800
Sn       6.82570212      14.53351682      20.64643955  F       15       0.00152433      -0.00026627       0.00159454
Sn       3.41285115      16.14835157      20.64643991  F       16       0.00033529       0.00015095       0.00037185
O        6.82570211      12.91868157      21.98505885  F       17      -0.00097908       0.00054189      -0.00548189
O        3.41285109      16.14835175      22.71331588  F       18      -0.00074192      -0.00011891      -0.00291146
O        1.33539568      14.53351665      24.05084986  F       19      -0.00021030      -0.00038338       0.00233898
O        5.49030724      14.53351647      24.05085043  F       20      -0.00128643       0.00078482       0.00124836
Sn       0.00000081      16.14835174      24.11991567  F       21       0.00344226       0.00073068      -0.02721256
Sn       3.41285108      14.53351654      23.99493530  F       22       0.00190152       0.00079505       0.01200962
O        3.41285137      12.91868158      25.32920843  F       23       0.00203424      -0.00070933       0.01245175
O        0.00082147      16.14826308      26.19180273  T       24       0.00005511       0.00042295       0.00003189
O        2.16240819      14.53342131      27.65476499  T       25      -0.00042811       0.00032063      -0.00002061
O        4.67058503      14.53366400      27.65714978  T       26       0.00133365       0.00033141      -0.00068825
Sn       6.83154382      14.53348233      27.66090472  T       27      -0.00019294      -0.00023635      -0.00088888
Sn       3.41729717      12.91872758      27.35737775  T       28       0.00011269       0.00063234       0.00023353
O        6.83357226      16.14860214      28.86119692  T       29      -0.00126234      -0.00006881       0.00026602
O       13.65140459       3.22967013      12.43114757  F        0      -0.00001935       0.00000287       0.00172824
O        8.98526182       1.61483561      13.63952349  F        1      -0.01635239      -0.00001052      -0.00656443
O       11.49184604       1.61483559      13.63952293  F        2       0.01634037      -0.00000906      -0.00657699
Sn       6.82570277       1.61483491      13.63204828  F        3       0.00000206      -0.00000245      -0.00383112
Sn      10.23855408       0.00000054      13.93646918  F        4       0.00001404      -0.00001974      -0.00026017
O       13.65140490       3.22967009      15.10100240  F        5      -0.00023178      -0.00040217       0.00201875
O       10.23855422       0.00000015      15.96367047  F        6      -0.00013726       0.00000226       0.00325814
O        8.16109784       1.61483510      17.24202773  F        7      -0.00058265      -0.00007629      -0.00285115
O       12.31600959       1.61483510      17.24202843  F        8      -0.00040008      -0.00071862      -0.00397779
Sn      13.65140454       3.22967024      17.17296284  F        9       0.00151651       0.00218126       0.03210756
Sn      10.23855368       1.61483498      17.29794302  F       10       0.00066515       0.00046683      -0.01028696
O       10.23855403       0.00000003      18.57956262  F       11      -0.00046033      -0.00008378       0.00132048
O       13.65140461       0.00000029      19.30782007  F       12      -0.00180158      -0.00030064       0.00073323
O        8.92151796       1.61483502      20.64643965  F       13      -0.00789469      -0.00145765      -0.00194649
O       11.55558952       1.61483499      20.64644013  F       14       0.00101529      -0.00302269      -0.00344427
Sn      13.65140462       1.61483536      20.64643955  F       15       0.00498079       0.01059564       0.01634919
Sn      10.23855365       3.22967011      20.64643991  F       16       0.00625032       0.00448010       0.01020612
O       13.65140461       0.00000010      21.98505885  F       17      -0.00217342      -0.00144017      -0.01721448
O       10.23855359       3.22967028      22.71331588  F       18      -0.00885512      -0.00841636      -0.00972608
O        8.16109818       1.61483519      24.05084986  F       19      -0.00359440      -0.00202415       0.00025073
O       12.31600974       1.61483501      24.05085043  F       20      -0.00865676      -0.01837498      -0.00712958
Sn       6.82570331       3.22967028      24.11991567  F       21       0.00633908       0.00289167      -0.02370523
Sn      10.23855358       1.61483508      23.99493530  F       22       0.01783594       0.01024904       0.01776157
O       10.23855387       0.00000012      25.32920843  F       23       0.00486918      -0.00197434       0.00833546
O        6.82468107       3.22913037      26.19150152  T       24      -0.00059919       0.00065923      -0.00168520
O        8.99092750       1.61669665      27.65165264  T       25      -0.00536570      -0.00021878       0.00176913
O       11.49713297       1.61425771      27.66145343  T       26      -0.00120768      -0.00128770      -0.00112341
Sn      13.65788690       1.61775053      27.66035371  T       27       0.00217042       0.00180873      -0.00791323
Sn      10.24447536       0.00065065      27.35712314  T       28      -0.00146375      -0.00071324       0.00243837
O       13.65736469       3.23305224      28.86077074  T       29      -0.00367277       0.00341984       0.00209284
O       13.65140459       6.45934050      12.43114757  F        0      -0.00002947      -0.00001034       0.00173402
O        8.98526182       4.84450598      13.63952349  F        1      -0.01636490      -0.00001980      -0.00660857
O       11.49184604       4.84450595      13.63952293  F        2       0.01634333      -0.00001399      -0.00664546
Sn       6.82570277       4.84450527      13.63204828  F        3       0.00001302       0.00000546      -0.00382802
Sn      10.23855408       3.22967091      13.93646918  F        4       0.00006128       0.00003680      -0.00012064
O       13.65140490       6.45934046      15.10100240  F        5      -0.00035265      -0.00022556       0.00160098
O       10.23855422       3.22967052      15.96367047  F        6      -0.00033220      -0.00022072       0.00300863
O        8.16109784       4.84450546      17.24202773  F        7      -0.00083894      -0.00016917      -0.00306969
O       12.31600959       4.84450547      17.24202843  F        8      -0.00098217      -0.00101794      -0.00482456
Sn      13.65140454       6.45934061      17.17296284  F        9       0.00190282       0.00105132       0.03507665
Sn      10.23855368       4.84450535      17.29794302  F       10       0.00182308       0.00090308      -0.00892298
O       10.23855403       3.22967040      18.57956262  F       11      -0.00099646      -0.00092033       0.00049684
O       13.65140461       3.22967066      19.30782007  F       12      -0.00253312      -0.00045855      -0.00162459
O        8.92151796       4.84450538      20.64643965  F       13      -0.00954992      -0.00098320      -0.00289965
O       11.55558952       4.84450536      20.64644013  F       14      -0.00204888      -0.00355629      -0.00619216
Sn      13.65140462       4.84450573      20.64643955  F       15       0.01149926       0.00952131       0.02734560
Sn      10.23855365       6.45934047      20.64643991  F       16       0.00975295       0.00128447       0.01315321
O       13.65140461       3.22967047      21.98505885  F       17      -0.00528467      -0.01759699      -0.03470072
O       10.23855359       6.45934065      22.71331588  F       18      -0.00987858      -0.00160010      -0.01158708
O        8.16109818       4.84450555      24.05084986  F       19      -0.00637133      -0.00159095       0.00003242
O       12.31600974       4.84450537      24.05085043  F       20      -0.03941990      -0.04788233      -0.04419599
Sn       6.82570331       6.45934065      24.11991567  F       21       0.00782794       0.00068049      -0.02253363
Sn      10.23855358       4.84450545      23.99493530  F       22       0.04592699       0.00961897       0.02277878
O       10.23855387       3.22967049      25.32920843  F       23       0.01000252       0.00184259       0.03137015
O        6.82246347       6.45937210      26.19136951  T       24       0.00040843       0.00043442      -0.00180292
O        8.98998167       4.84689934      27.64524030  T       25      -0.00164065       0.00055499       0.00003478
O       11.49637314       4.84480211      27.68433967  T       26      -0.00078681       0.00106697      -0.00304018
Sn      13.66987373       4.84779057      27.65464234  T       27       0.00227874      -0.00008123      -0.00355470
Sn      10.24750932       3.23238126      27.35882395  T       28      -0.00001288       0.00049947      -0.00013882
O       13.70977829       6.47637347      28.84066601  T       29      -0.00209364      -0.00063017       0.00526339
O       13.65140459       9.68901086      12.43114757  F        0      -0.00002478       0.00002411       0.00174284
O        8.98526182       8.07417635      13.63952349  F        1      -0.01638642      -0.00000973      -0.00664055
O       11.49184604       8.07417632      13.63952293  F        2       0.01635581      -0.00000865      -0.00669426
Sn       6.82570277       8.07417564      13.63204828  F        3       0.00002097      -0.00000022      -0.00382918
Sn      10.23855408       6.45934127      13.93646918  F        4       0.00013875       0.00001917       0.00015742
O       13.65140490       9.68901082      15.10100240  F        5      -0.00031475       0.00030406       0.00167394
O       10.23855422       6.45934088      15.96367047  F        6      -0.00058416      -0.00015027       0.00248520
O        8.16109784       8.07417583      17.24202773  F        7      -0.00100134       0.00001905      -0.00312259
O       12.31600959       8.07417583      17.24202843  F        8      -0.00118911       0.00012040      -0.00500727
Sn      13.65140454       9.68901097      17.17296284  F        9       0.00156597      -0.00154364       0.03437923
Sn      10.23855368       8.07417571      17.29794302  F       10       0.00254411      -0.00009532      -0.00824069
O       10.23855403       6.45934077      18.57956262  F       11      -0.00139734      -0.00045347      -0.00041365
O       13.65140461       6.45934102      19.30782007  F       12      -0.00276016       0.00067000      -0.00456832
O        8.92151796       8.07417575      20.64643965  F       13      -0.01044913       0.00030161      -0.00324386
O       11.55558952       8.07417572      20.64644013  F       14      -0.00199394       0.00064511      -0.00588641
Sn      13.65140462       8.07417609      20.64643955  F       15       0.01570283      -0.00277060       0.03113667
Sn      10.23855365       9.68901084      20.64643991  F       16       0.00916204      -0.00227983       0.01216700
O       13.65140461       6.45934083      21.98505885  F       17      -0.01336879      -0.01006974      -0.04926239
O       10.23855359       9.68901101      22.71331588  F       18      -0.00887925       0.00240547      -0.01026949
O        8.16109818       8.07417592      24.05084986  F       19      -0.00621486       0.00060917       0.00152402
O       12.31600974       8.07417574      24.05085043  F       20      -0.03948800       0.00671758      -0.03444104
Sn       6.82570331       9.68901101      24.11991567  F       21       0.00733685      -0.00236475      -0.02406271
Sn      10.23855358       8.07417581      23.99493530  F       22       0.05528973      -0.00363403       0.03604525
O       10.23855387       6.45934085      25.32920843  F       23      -0.00593321      -0.00254604       0.01156740
O        6.82334090       9.68918370      26.19135026  T       24      -0.00012515      -0.00015540      -0.00190240
O        8.99023225       8.07329674      27.64709942  T       25       0.00607514       0.00053442      -0.00076595
O       11.49667178       8.07800303      27.68056518  T       26      -0.00453681       0.00018729      -0.00017065
Sn      13.68268473       8.07456035      27.61918127  T       27      -0.00168035      -0.00091722      -0.00965758
Sn      10.25247685       6.46068165      27.35796673  T       28      -0.00081066      -0.00023821      -0.00052467
O       13.73804178       9.67700623      28.83763378  T       29      -0.00488111      -0.00070438       0.00483471
O       13.65140459      12.91868123      12.43114757  F        0      -0.00001097       0.00002515       0.00174081
O        8.98526182      11.30384671      13.63952349  F        1      -0.01637748       0.00001656      -0.00660715
O       11.49184604      11.30384668      13.63952293  F        2       0.01635286       0.00000823      -0.00663834
Sn       6.82570277      11.30384601      13.63204828  F        3       0.00001374      -0.00001738      -0.00383487
Sn      10.23855408       9.68901164      13.93646918  F        4       0.00013291      -0.00003556       0.00012738
O       13.65140490      12.91868119      15.10100240  F        5      -0.00015919       0.00038625       0.00214690
O       10.23855422       9.68901125      15.96367047  F        6      -0.00055677       0.00016715       0.00254802
O        8.16109784      11.30384619      17.24202773  F        7      -0.00082350       0.00017744      -0.00300629
O       12.31600959      11.30384620      17.24202843  F        8      -0.00080983       0.00107450      -0.00465225
Sn      13.65140454      12.91868134      17.17296284  F        9       0.00101048      -0.00190744       0.03119366
Sn      10.23855368      11.30384608      17.29794302  F       10       0.00164386      -0.00092319      -0.00920284
O       10.23855403       9.68901113      18.57956262  F       11      -0.00134343       0.00062494      -0.00033103
O       13.65140461       9.68901139      19.30782007  F       12      -0.00206972       0.00030806      -0.00314211
O        8.92151796      11.30384611      20.64643965  F       13      -0.00927096       0.00105712      -0.00266877
O       11.55558952      11.30384609      20.64644013  F       14      -0.00149037       0.00355362      -0.00554025
Sn      13.65140462      11.30384646      20.64643955  F       15       0.00574414      -0.00942216       0.02333371
Sn      10.23855365      12.91868120      20.64643991  F       16       0.00567962      -0.00398911       0.00888770
O       13.65140461       9.68901120      21.98505885  F       17      -0.01155524       0.01435085      -0.04735468
O       10.23855359      12.91868138      22.71331588  F       18      -0.00778875       0.00755582      -0.00770005
O        8.16109818      11.30384628      24.05084986  F       19      -0.00520387       0.00251695       0.00039946
O       12.31600974      11.30384610      24.05085043  F       20      -0.03529982       0.05085625      -0.04027158
Sn       6.82570331      12.91868138      24.11991567  F       21       0.00593493      -0.00204195      -0.02446277
Sn      10.23855358      11.30384618      23.99493530  F       22       0.03942990      -0.01085475       0.01725339
O       10.23855387       9.68901122      25.32920843  F       23      -0.00663790       0.01299005       0.00803514
O        6.82487810      12.91932692      26.19151726  T       24      -0.00073486      -0.00025700      -0.00149018
O        8.98862209      11.30353021      27.64554754  T       25       0.00152761      -0.00164058      -0.00081555
O       11.49514658      11.30457121      27.68650143  T       26      -0.00152758      -0.00239059      -0.00223267
Sn      13.66429221      11.30356538      27.65157382  T       27       0.00193666       0.00018955      -0.00247678
Sn      10.24729498       9.68902714      27.35769194  T       28      -0.00176390      -0.00030833      -0.00058344
O       13.67256147      12.91687942      28.85797960  T       29      -0.00329490      -0.00404486       0.00350726
O       13.65140459      16.14835159      12.43114757  F        0      -0.00000700       0.00001345       0.00174874
O        8.98526182      14.53351708      13.63952349  F        1      -0.01635623       0.00001357      -0.00656657
O       11.49184604      14.53351705      13.63952293  F        2       0.01634124       0.00000987      -0.00657648
Sn       6.82570277      14.53351637      13.63204828  F        3       0.00000905      -0.00000452      -0.00383621
Sn      10.23855408      12.91868201      13.93646918  F        4       0.00005586      -0.00006090      -0.00013977
O       13.65140490      16.14835156      15.10100240  F        5      -0.00010688      -0.00002226       0.00242478
O       10.23855422      12.91868161      15.96367047  F        6      -0.00029427       0.00019968       0.00307827
O        8.16109784      14.53351656      17.24202773  F        7      -0.00057459       0.00004973      -0.00281988
O       12.31600959      14.53351656      17.24202843  F        8      -0.00026880       0.00054414      -0.00381858
Sn      13.65140454      16.14835170      17.17296284  F        9       0.00087733       0.00021466       0.02917346
Sn      10.23855368      14.53351644      17.29794302  F       10       0.00060132      -0.00034676      -0.01045842
O       10.23855403      12.91868150      18.57956262  F       11      -0.00091238       0.00082947       0.00064383
O       13.65140461      12.91868175      19.30782007  F       12      -0.00173518      -0.00022306      -0.00089337
O        8.92151796      14.53351648      20.64643965  F       13      -0.00776776       0.00106557      -0.00180737
O       11.55558952      14.53351646      20.64644013  F       14       0.00125163       0.00234584      -0.00326795
Sn      13.65140462      14.53351682      20.64643955  F       15       0.00284265      -0.00784792       0.01441621
Sn      10.23855365      16.14835157      20.64643991  F       16       0.00408980       0.00054751       0.00475572
O       13.65140461      12.91868157      21.98505885  F       17      -0.00242060       0.01503250      -0.02960230
O       10.23855359      16.14835175      22.71331588  F       18      -0.00553460      -0.00052718      -0.00737336
O        8.16109818      14.53351665      24.05084986  F       19      -0.00263615       0.00085993       0.00068367
O       12.31600974      14.53351647      24.05085043  F       20      -0.00517964       0.01012183      -0.00249427
Sn       6.82570331      16.14835174      24.11991567  F       21       0.00467956       0.00086723      -0.02507184
Sn      10.23855358      14.53351654      23.99493530  F       22       0.01574655      -0.00534738       0.01522785
O       10.23855387      12.91868158      25.32920843  F       23       0.01322062      -0.00336528       0.03632247
O        6.82596571      16.14825789      26.19159686  T       24       0.00178376      -0.00022485       0.00009352
O        8.99125510      14.53328520      27.65294734  T       25      -0.00587389      -0.00117141       0.00119873
O       11.49824564      14.53384918      27.66088682  T       26      -0.00214246      -0.00058892      -0.00020920
Sn      13.65865780      14.53433709      27.65978345  T       27       0.00276810      -0.00339174      -0.00735065
Sn      10.24641523      12.91769610      27.35893488  T       28      -0.00146093      -0.00153710       0.00002360
O       13.66522699      16.14949942      28.86013318  T       29      -0.00385770      -0.00145729      -0.00134021
O       20.47710709       3.22967013      12.43114757  F        0       0.00002470       0.00000916       0.00175428
O       15.81096432       1.61483561      13.63952349  F        1      -0.01639771      -0.00008038      -0.00675020
O       18.31754854       1.61483559      13.63952293  F        2       0.01642004      -0.00008039      -0.00671715
Sn      13.65140527       1.61483491      13.63204828  F        3       0.00007394       0.00009996      -0.00342864
Sn      17.06425658       0.00000054      13.93646918  F        4      -0.00005778       0.00004953       0.00002998
O       20.47710740       3.22967009      15.10100240  F        5       0.00023076      -0.00021278       0.00261074
O       17.06425672       0.00000015      15.96367047  F        6       0.00030341      -0.00020319       0.00265047
O       14.98680034       1.61483510      17.24202773  F        7      -0.00095110      -0.00098170      -0.00440776
O       19.14171209       1.61483510      17.24202843  F        8       0.00151692      -0.00099158      -0.00378192
Sn      20.47710704       3.22967024      17.17296284  F        9      -0.00166109       0.00124184       0.02893862
Sn      17.06425618       1.61483498      17.29794302  F       10      -0.00072289       0.00332029      -0.00535181
O       17.06425653       0.00000003      18.57956262  F       11       0.00082405      -0.00109274      -0.00171485
O       20.47710711       0.00000029      19.30782007  F       12       0.00214710      -0.00163584       0.00325282
O       15.74722046       1.61483502      20.64643965  F       13      -0.00430254      -0.00479126      -0.00500259
O       18.38129202       1.61483499      20.64644013  F       14       0.00959274      -0.00486958      -0.00311606
Sn      20.47710712       1.61483536      20.64643955  F       15      -0.00639137       0.01092712      -0.00327297
Sn      17.06425615       3.22967011      20.64643991  F       16      -0.00644864       0.01734131       0.01988567
O       20.47710711       0.00000010      21.98505885  F       17       0.00232918      -0.00988044       0.00523884
O       17.06425609       3.22967028      22.71331588  F       18       0.00988792      -0.00096428      -0.01279834
O       14.98680068       1.61483519      24.05084986  F       19      -0.01057623      -0.01543625      -0.00583667
O       19.14171224       1.61483501      24.05085043  F       20       0.04865383      -0.01737470       0.02421933
Sn      13.65140581       3.22967028      24.11991567  F       21       0.01741604       0.05608708      -0.01530525
Sn      17.06425608       1.61483508      23.99493530  F       22      -0.03162289       0.04016399       0.03105095
O       17.06425637       0.00000012      25.32920843  F       23       0.02484437      -0.01260080       0.01157314
O       13.64462865       3.22365445      26.19018523  T       24      -0.00214824       0.00081061       0.00438905
O       15.81505076       1.61880980      27.65266156  T       25      -0.00292417      -0.00093981       0.00179068
O       18.32125450       1.61901973      27.65242485  T       26      -0.00208941      -0.00386272       0.00057669
Sn      20.47318384       1.62083250      27.66491453  T       27       0.00091371       0.00094796      -0.00474933
Sn      17.06431397       0.00453879      27.35712832  T       28       0.00090992       0.00160963      -0.00416720
O       20.47957423       3.22339504      28.88388412  T       29      -0.00035036      -0.00027844       0.00461578
O       20.47710709       6.45934050      12.43114757  F        0       0.00004365       0.00000652       0.00184429
O       15.81096432       4.84450598      13.63952349  F        1      -0.01646566      -0.00007934      -0.00703492
O       18.31754854       4.84450595      13.63952293  F        2       0.01652029      -0.00007349      -0.00698463
Sn      13.65140527       4.84450527      13.63204828  F        3       0.00014860       0.00018461      -0.00293043
Sn      17.06425658       3.22967091      13.93646918  F        4      -0.00006038       0.00018407       0.00096643
O       20.47710740       6.45934046      15.10100240  F        5       0.00040946       0.00004652       0.00251067
O       17.06425672       3.22967052      15.96367047  F        6       0.00030139      -0.00046793       0.00155436
O       14.98680034       4.84450546      17.24202773  F        7      -0.00160700      -0.00123912      -0.00538852
O       19.14171209       4.84450547      17.24202843  F        8       0.00263850      -0.00040761      -0.00437072
Sn      20.47710704       6.45934061      17.17296284  F        9      -0.00247096      -0.00036316       0.02683783
Sn      17.06425618       4.84450535      17.29794302  F       10      -0.00132673       0.00324631      -0.00029736
O       17.06425653       3.22967040      18.57956262  F       11       0.00082786      -0.00310005      -0.00238866
O       20.47710711       3.22967066      19.30782007  F       12       0.00287134       0.00099680       0.00088761
O       15.74722046       4.84450538      20.64643965  F       13      -0.00823743      -0.01240409      -0.01195141
O       18.38129202       4.84450536      20.64644013  F       14       0.02059251      -0.00850398      -0.00903092
Sn      20.47710712       4.84450573      20.64643955  F       15      -0.01444945      -0.01417094      -0.00690559
Sn      17.06425615       6.45934047      20.64643991  F       16      -0.01286949       0.00586975       0.06277066
O       20.47710711       3.22967047      21.98505885  F       17       0.00520621      -0.01032810      -0.01377331
O       17.06425609       6.45934065      22.71331588  F       18       0.02808771      -0.00310149      -0.19286141
O       14.98680068       4.84450555      24.05084986  F       19      -0.10080914      -0.05171214      -0.02107038
O       19.14171224       4.84450537      24.05085043  F       20       0.13403094      -0.02359638       0.00407269
Sn      13.65140581       6.45934065      24.11991567  F       21       0.05876129       0.01110176      -0.03507356
Sn      17.06425608       4.84450545      23.99493530  F       22      -0.04269728       0.30650046       0.30608940
O       17.06425637       3.22967049      25.32920843  F       23       0.02460494      -0.15637489      -0.19880889
O       13.58198126       6.44296640      26.18092362  T       24      -0.00306691       0.00048555       0.00220108
O       15.80995179       4.83221985      27.59703428  T       25      -0.00371689       0.00012863       0.00503630
O       18.33781313       4.83881475      27.59480312  T       26       0.00026903      -0.00055839       0.00468603
Sn      20.46229118       4.82241523      27.67461646  T       27      -0.00215637       0.00037076      -0.00052959
Sn      17.06523040       3.24100008      27.34415881  T       28       0.00150510      -0.00203563       0.00147796
O       20.44459506       6.49377024      28.83859826  T       29      -0.00588543      -0.01364911       0.00304598
O       20.47710709       9.68901086      12.43114757  F        0       0.00004352       0.00002802       0.00191885
O       15.81096432       8.07417635      13.63952349  F        1      -0.01648667       0.00001409      -0.00714213
O       18.31754854       8.07417632      13.63952293  F        2       0.01659623       0.00002091      -0.00708041
Sn      13.65140527       8.07417564      13.63204828  F        3       0.00016245      -0.00001805      -0.00265610
Sn      17.06425658       6.45934127      13.93646918  F        4      -0.00011575       0.00006004       0.00199759
O       20.47710740       9.68901082      15.10100240  F        5       0.00040182       0.00031085       0.00256258
O       17.06425672       6.45934088      15.96367047  F        6       0.00043404      -0.00015242       0.00051847
O       14.98680034       8.07417583      17.24202773  F        7      -0.00171664       0.00020089      -0.00553157
O       19.14171209       8.07417583      17.24202843  F        8       0.00333193       0.00043566      -0.00334460
Sn      20.47710704       9.68901097      17.17296284  F        9      -0.00242855      -0.00156600       0.02372354
Sn      17.06425618       8.07417571      17.29794302  F       10      -0.00224729      -0.00087319       0.00077744
O       17.06425653       6.45934077      18.57956262  F       11       0.00155870      -0.00048544       0.00139064
O       20.47710711       6.45934102      19.30782007  F       12       0.00381306      -0.00011221       0.00819859
O       15.74722046       8.07417575      20.64643965  F       13      -0.01188308       0.00497662      -0.01854357
O       18.38129202       8.07417572      20.64644013  F       14       0.03199666       0.00636680      -0.01108081
Sn      20.47710712       8.07417609      20.64643955  F       15      -0.02412438      -0.02139276      -0.04586018
Sn      17.06425615       9.68901084      20.64643991  F       16      -0.01560225      -0.01857600       0.03877651
O       20.47710711       6.45934083      21.98505885  F       17       0.01641217       0.02008338      -0.00271889
O       17.06425609       9.68901101      22.71331588  F       18       0.04129463       0.02741614      -0.14910144
O       14.98680068       8.07417592      24.05084986  F       19      -0.20211199       0.01569012      -0.03906632
O       19.14171224       8.07417574      24.05085043  F       20       0.36992604       0.11795110       0.11477630
Sn      13.65140581       9.68901101      24.11991567  F       21       0.04001693      -0.02992330      -0.05813476
Sn      17.06425608       8.07417581      23.99493530  F       22      -0.15307571      -0.08458205       0.60837340
O       17.06425637       6.45934085      25.32920843  F       23       0.06754926      -0.34441984       0.11389479
O       13.58539040       9.70998387      26.18069230  T       24      -0.00232324       0.00021307       0.00147974
O       15.75717227       8.07136520      27.30306378  T       25      -0.00057398      -0.00084732       0.00251453
O       18.40861942       8.09063881      27.29643318  T       26       0.00470275      -0.00509532       0.00149641
Sn      20.46124544       7.99988837      27.52246077  T       27      -0.00964467       0.00131166      -0.01787002
Sn      17.06878731       6.48474518      27.43419145  T       28      -0.00194017      -0.00249323      -0.00326060
O       20.48433752       9.68446050      28.89050508  T       29       0.00860274       0.00101114      -0.00309193
O       20.47710709      12.91868123      12.43114757  F        0       0.00002453       0.00001259       0.00185269
O       15.81096432      11.30384671      13.63952349  F        1      -0.01643038       0.00009025      -0.00691897
O       18.31754854      11.30384668      13.63952293  F        2       0.01653981       0.00008095      -0.00685571
Sn      13.65140527      11.30384601      13.63204828  F        3       0.00010895      -0.00019493      -0.00302675
Sn      17.06425658       9.68901164      13.93646918  F        4      -0.00013039      -0.00014412       0.00168872
O       20.47710740      12.91868119      15.10100240  F        5       0.00021803       0.00011432       0.00307387
O       17.06425672       9.68901125      15.96367047  F        6       0.00050820       0.00037050       0.00060041
O       14.98680034      11.30384619      17.24202773  F        7      -0.00125499       0.00145212      -0.00497983
O       19.14171209      11.30384620      17.24202843  F        8       0.00287862       0.00122515      -0.00278805
Sn      20.47710704      12.91868134      17.17296284  F        9      -0.00158746      -0.00051232       0.02292542
Sn      17.06425618      11.30384608      17.29794302  F       10      -0.00226288      -0.00420918      -0.00342839
O       17.06425653       9.68901113      18.57956262  F       11       0.00219681       0.00281886       0.00332069
O       20.47710711       9.68901139      19.30782007  F       12       0.00367049       0.00041950       0.01093027
O       15.74722046      11.30384611      20.64643965  F       13      -0.00276176       0.01111428      -0.00645450
O       18.38129202      11.30384609      20.64644013  F       14       0.02322073       0.01003220       0.00108343
Sn      20.47710712      11.30384646      20.64643955  F       15      -0.01378887       0.00818832      -0.05491906
Sn      17.06425615      12.91868120      20.64643991  F       16      -0.01309958      -0.01033959      -0.00296089
O       20.47710711       9.68901120      21.98505885  F       17       0.01567405       0.01471821       0.04046726
O       17.06425609      12.91868138      22.71331588  F       18       0.02890897      -0.01734815       0.01330242
O       14.98680068      11.30384628      24.05084986  F       19      -0.07475276       0.05127686      -0.01603215
O       19.14171224      11.30384610      24.05085043  F       20       0.24064988      -0.05218631       0.15512621
Sn      13.65140581      12.91868138      24.11991567  F       21       0.00520803      -0.04538989      -0.03092681
Sn      17.06425608      11.30384618      23.99493530  F       22      -0.16437748      -0.28783458       0.23019752
O       17.06425637       9.68901122      25.32920843  F       23       0.05624795       0.43179482       0.04095455
O       13.64994743      12.92364352      26.19048155  T       24      -0.00122757      -0.00404109       0.00176829
O       15.82342100      11.31982046      27.60377411  T       25      -0.00254267      -0.01110072       0.01155470
O       18.36003192      11.29434687      27.61260313  T       26      -0.00631801       0.00167871       0.00089161
Sn      20.47461738      11.38581627      27.55477238  T       27      -0.00437812      -0.00683412      -0.00024715
Sn      17.04807289       9.65575687      27.42018661  T       28      -0.00854181      -0.00288145       0.01163777
O       20.48326729      12.90867549      28.85559146  T       29      -0.00491688       0.00924674       0.00665754
O       20.47710709      16.14835159      12.43114757  F        0       0.00001268       0.00000662       0.00177765
O       15.81096432      14.53351708      13.63952349  F        1      -0.01636460       0.00003571      -0.00667878
O       18.31754854      14.53351705      13.63952293  F        2       0.01641822       0.00002817      -0.00662860
Sn      13.65140527      14.53351637      13.63204828  F        3       0.00004504      -0.00009182      -0.00349218
Sn      17.06425658      12.91868201      13.93646918  F        4      -0.00011273      -0.00019307       0.00045413
O       20.47710740      16.14835156      15.10100240  F        5       0.00010645      -0.00022163       0.00302374
O       17.06425672      12.91868161      15.96367047  F        6       0.00043389       0.00045914       0.00215733
O       14.98680034      14.53351656      17.24202773  F        7      -0.00066622       0.00057622      -0.00418673
O       19.14171209      14.53351656      17.24202843  F        8       0.00169393      -0.00025574      -0.00319225
Sn      20.47710704      16.14835170      17.17296284  F        9      -0.00102523       0.00119253       0.02600381
Sn      17.06425618      14.53351644      17.29794302  F       10      -0.00134625      -0.00147230      -0.00690827
O       17.06425653      12.91868150      18.57956262  F       11       0.00156180       0.00185423      -0.00040972
O       20.47710711      12.91868175      19.30782007  F       12       0.00275564       0.00035179       0.01229455
O       15.74722046      14.53351648      20.64643965  F       13      -0.00131527       0.00110460      -0.00126637
O       18.38129202      14.53351646      20.64644013  F       14       0.01384103      -0.00301628       0.00216822
Sn      20.47710712      14.53351682      20.64643955  F       15      -0.00598036       0.01671566      -0.02172200
Sn      17.06425615      16.14835157      20.64643991  F       16      -0.00649035       0.00562612       0.01045871
O       20.47710711      12.91868157      21.98505885  F       17       0.00482492      -0.01502176       0.01805876
O       17.06425609      16.14835175      22.71331588  F       18       0.01047896      -0.00670544       0.00025536
O       14.98680068      14.53351665      24.05084986  F       19       0.00059403       0.00253974      -0.00402778
O       19.14171224      14.53351647      24.05085043  F       20       0.03470170      -0.02497998       0.02250924
Sn      13.65140581      16.14835174      24.11991567  F       21       0.00540732       0.00881369      -0.02435233
Sn      17.06425608      14.53351654      23.99493530  F       22      -0.04294817       0.02295599       0.01410614
O       17.06425637      12.91868158      25.32920843  F       23       0.08258314       0.08587553      -0.05508393
O       13.65388568      16.14768577      26.19142772  T       24      -0.00162169      -0.00182196       0.00642008
O       15.82152104      14.53348013      27.65495608  T       25      -0.00139868       0.00650670       0.00036748
O       18.32960442      14.52810447      27.65022827  T       26       0.00135630       0.00061597       0.00105091
Sn      20.47572547      14.56726720      27.68023672  T       27      -0.00420646      -0.00507516       0.00321943
Sn      17.07094641      12.91177872      27.34865517  T       28       0.00012313       0.00562413      -0.00006205
O       20.47564838      16.16674996      28.88464525  T       29      -0.00132272      -0.00130035      -0.00304246
O       27.30280959       3.22967013      12.43114757  F        0       0.00000701       0.00001050       0.00178701
O       22.63666682       1.61483561      13.63952349  F        1      -0.01634517      -0.00001177      -0.00652964
O       25.14325104       1.61483559      13.63952293  F        2       0.01634026      -0.00001216      -0.00653522
Sn      20.47710777       1.61483491      13.63204828  F        3      -0.00008024       0.00010612      -0.00374943
Sn      23.88995908       0.00000054      13.93646918  F        4       0.00003480       0.00003609      -0.00044805
O       27.30280990       3.22967009      15.10100240  F        5       0.00001781       0.00001487       0.00305557
O       23.88995922       0.00000015      15.96367047  F        6      -0.00013728      -0.00018447       0.00366828
O       21.81250284       1.61483510      17.24202773  F        7       0.00009923      -0.00073507      -0.00320634
O       25.96741459       1.61483510      17.24202843  F        8       0.00041832      -0.00009294      -0.00263260
Sn      27.30280954       3.22967024      17.17296284  F        9      -0.00006648       0.00000968       0.02620523
Sn      23.88995868       1.61483498      17.29794302  F       10      -0.00011777       0.00049880      -0.01164504
O       23.88995902       0.00000003      18.57956262  F       11      -0.00026945      -0.00096737       0.00340704
O       27.30280961       0.00000029      19.30782007  F       12      -0.00002256      -0.00025290       0.00453695
O       22.57292296       1.61483502      20.64643965  F       13      -0.00412797      -0.00314232      -0.00077340
O       25.20699452       1.61483499      20.64644013  F       14       0.00692952      -0.00151125      -0.00080133
Sn      27.30280962       1.61483536      20.64643955  F       15      -0.00068790       0.00078742      -0.00091341
Sn      23.88995865       3.22967011      20.64643991  F       16      -0.00068370      -0.00003560       0.00265741
O       27.30280961       0.00000010      21.98505885  F       17      -0.00025583      -0.00107635      -0.00250879
O       23.88995859       3.22967028      22.71331588  F       18       0.00125332      -0.00374203       0.00158955
O       21.81250318       1.61483519      24.05084986  F       19      -0.01920749      -0.01903230       0.01802791
O       25.96741474       1.61483501      24.05085043  F       20       0.00158536      -0.00193276       0.00686135
Sn      20.47710831       3.22967028      24.11991567  F       21      -0.01846422       0.03774306      -0.00561734
Sn      23.88995858       1.61483508      23.99493530  F       22       0.00488452       0.01101618      -0.00980775
O       23.88995887       0.00000012      25.32920843  F       23      -0.01774325      -0.00741876       0.01764525
O       20.48786532       3.22561475      26.19878200  T       24      -0.00072934      -0.00104621       0.00181109
O       22.63217427       1.61635377      27.65728666  T       25       0.00231931      -0.00243873      -0.00033110
O       25.14352220       1.61792403      27.64886855  T       26       0.00867289      -0.00135352       0.00232816
Sn      27.30349033       1.61659542      27.66166126  T       27      -0.00039395      -0.00049482      -0.00097153
Sn      23.89048206       0.00662150      27.35517371  T       28      -0.00197428      -0.00401281       0.00466985
O       27.29594006       3.23151787      28.86194056  T       29       0.00241399       0.00282267      -0.00030327
O       27.30280959       6.45934050      12.43114757  F        0       0.00000384      -0.00000465       0.00181031
O       22.63666682       4.84450598      13.63952349  F        1      -0.01635626       0.00002497      -0.00652827
O       25.14325104       4.84450595      13.63952293  F        2       0.01632753       0.00001183      -0.00652405
Sn      20.47710777       4.84450527      13.63204828  F        3      -0.00017660      -0.00004989      -0.00349867
Sn      23.88995908       3.22967091      13.93646918  F        4      -0.00001439      -0.00001524      -0.00029588
O       27.30280990       6.45934046      15.10100240  F        5      -0.00001111       0.00002991       0.00309956
O       23.88995922       3.22967052      15.96367047  F        6       0.00005725      -0.00004521       0.00340110
O       21.81250284       4.84450546      17.24202773  F        7       0.00053631       0.00001128      -0.00362085
O       25.96741459       4.84450547      17.24202843  F        8       0.00044341       0.00010162      -0.00270212
Sn      27.30280954       6.45934061      17.17296284  F        9       0.00014720      -0.00021522       0.02595063
Sn      23.88995868       4.84450535      17.29794302  F       10      -0.00068754      -0.00052671      -0.01145901
O       23.88995902       3.22967040      18.57956262  F       11       0.00027100      -0.00005615       0.00258188
O       27.30280961       3.22967066      19.30782007  F       12       0.00021491      -0.00016058       0.00435678
O       22.57292296       4.84450538      20.64643965  F       13      -0.00516638       0.00330927       0.00114263
O       25.20699452       4.84450536      20.64644013  F       14       0.00584706       0.00187425       0.00162486
Sn      27.30280962       4.84450573      20.64643955  F       15      -0.00052143      -0.00113775      -0.00223138
Sn      23.88995865       6.45934047      20.64643991  F       16       0.00164283      -0.00883561      -0.01424419
O       27.30280961       3.22967047      21.98505885  F       17       0.00036292       0.00030207      -0.00271265
O       23.88995859       6.45934065      22.71331588  F       18      -0.01549780       0.02001188       0.02082530
O       21.81250318       4.84450555      24.05084986  F       19       0.03597751      -0.02734218      -0.03986937
O       25.96741474       4.84450537      24.05085043  F       20      -0.00390781       0.00704457       0.00615451
Sn      20.47710831       6.45934065      24.11991567  F       21      -0.07541792      -0.22158119      -0.46345818
Sn      23.88995858       4.84450545      23.99493530  F       22      -0.01518265      -0.04202591      -0.01762153
O       23.88995887       3.22967049      25.32920843  F       23      -0.02291034       0.01454597       0.04413243
O       20.56622001       6.40365122      26.16540737  T       24       0.00088958       0.00134169       0.00588357
O       22.62679104       4.84624112      27.68183213  T       25      -0.00294417       0.00723615      -0.00029690
O       25.13969944       4.84478443      27.64075628  T       26      -0.00653213       0.00333518      -0.00119256
Sn      27.30125180       4.84475720      27.65999198  T       27      -0.00058681       0.00013323      -0.00233763
Sn      23.88763243       3.22967504      27.35727493  T       28      -0.00116990       0.00492829      -0.00095403
O       27.28949837       6.46006745      28.86046807  T       29       0.00332035       0.00223388       0.00109506
O       27.30280959       9.68901086      12.43114757  F        0      -0.00000126       0.00002186       0.00181603
O       22.63666682       8.07417635      13.63952349  F        1      -0.01638716       0.00001893      -0.00647651
O       25.14325104       8.07417632      13.63952293  F        2       0.01631176       0.00000954      -0.00646645
Sn      20.47710777       8.07417564      13.63204828  F        3      -0.00022176      -0.00009725      -0.00355887
Sn      23.88995908       6.45934127      13.93646918  F        4      -0.00004430      -0.00004120      -0.00040621
O       27.30280990       9.68901082      15.10100240  F        5      -0.00004122       0.00002089       0.00314862
O       23.88995922       6.45934088      15.96367047  F        6       0.00019483       0.00002938       0.00333543
O       21.81250284       8.07417583      17.24202773  F        7       0.00058441       0.00042429      -0.00240250
O       25.96741459       8.07417583      17.24202843  F        8       0.00030527       0.00013720      -0.00245228
Sn      27.30280954       9.68901097      17.17296284  F        9       0.00044557      -0.00012874       0.02542672
Sn      23.88995868       8.07417571      17.29794302  F       10      -0.00059312      -0.00070665      -0.01321970
O       23.88995902       6.45934077      18.57956262  F       11       0.00001972       0.00147003       0.00353325
O       27.30280961       6.45934102      19.30782007  F       12      -0.00022699       0.00070990       0.00481289
O       22.57292296       8.07417575      20.64643965  F       13      -0.00846202       0.00529225       0.00994783
O       25.20699452       8.07417572      20.64644013  F       14       0.00262627       0.00379298       0.00511163
Sn      27.30280962       8.07417609      20.64643955  F       15       0.00345013      -0.00227132      -0.00558967
Sn      23.88995865       9.68901084      20.64643991  F       16       0.00504394      -0.00221171      -0.03277226
O       27.30280961       6.45934083      21.98505885  F       17      -0.00108122       0.00309104       0.00107158
O       23.88995859       9.68901101      22.71331588  F       18      -0.02903724       0.00258194       0.05312139
O       21.81250318       8.07417592      24.05084986  F       19      -0.07833248       0.12959325       0.12053022
O       25.96741474       8.07417574      24.05085043  F       20      -0.02241135       0.00867251       0.01043335
Sn      20.47710831       9.68901101      24.11991567  F       21      -0.05346455      -0.02771341      -0.34070677
Sn      23.88995858       8.07417581      23.99493530  F       22       0.08431432      -0.05565058      -0.04703727
O       23.88995887       6.45934085      25.32920843  F       23      -0.04290350       0.05270953       0.11563908
O       20.56372532       9.71100678      26.23854129  T       24       0.00680207       0.00328884      -0.01633079
O       22.60037347       8.09638427      27.65852357  T       25       0.01269580       0.00285982      -0.00165084
O       25.12503254       8.06597600      27.65787843  T       26      -0.01340240       0.00237418      -0.00278814
Sn      27.30562459       8.07307785      27.66054720  T       27      -0.00140765       0.00085507      -0.00422221
Sn      23.87478093       6.45504676      27.35849941  T       28      -0.00037373       0.00488149      -0.00078335
O       27.27506692       9.68975001      28.85741678  T       29      -0.00170110      -0.00001567       0.00053430
O       27.30280959      12.91868123      12.43114757  F        0       0.00000042       0.00001767       0.00179917
O       22.63666682      11.30384671      13.63952349  F        1      -0.01638216      -0.00002022      -0.00641513
O       25.14325104      11.30384668      13.63952293  F        2       0.01629788       0.00000202      -0.00642934
Sn      20.47710777      11.30384601      13.63204828  F        3      -0.00017264      -0.00012222      -0.00393599
Sn      23.88995908       9.68901164      13.93646918  F        4      -0.00002185      -0.00003761      -0.00066805
O       27.30280990      12.91868119      15.10100240  F        5      -0.00004504      -0.00001725       0.00314653
O       23.88995922       9.68901125      15.96367047  F        6       0.00010887       0.00017866       0.00339815
O       21.81250284      11.30384619      17.24202773  F        7       0.00020881       0.00079919      -0.00206202
O       25.96741459      11.30384620      17.24202843  F        8       0.00011893       0.00008795      -0.00234231
Sn      27.30280954      12.91868134      17.17296284  F        9       0.00037989       0.00018883       0.02549483
Sn      23.88995868      11.30384608      17.29794302  F       10       0.00031970      -0.00037195      -0.01417359
O       23.88995902       9.68901113      18.57956262  F       11      -0.00058454       0.00061956       0.00565420
O       27.30280961       9.68901139      19.30782007  F       12      -0.00086316       0.00017103       0.00604168
O       22.57292296      11.30384611      20.64643965  F       13      -0.00913293      -0.00108082       0.01049849
O       25.20699452      11.30384609      20.64644013  F       14       0.00134346      -0.00246326       0.00579033
Sn      27.30280962      11.30384646      20.64643955  F       15       0.00421436       0.00133650      -0.00588163
Sn      23.88995865      12.91868120      20.64643991  F       16       0.00567448       0.00598747      -0.01848971
O       27.30280961       9.68901120      21.98505885  F       17      -0.00259480       0.00052973       0.00214273
O       23.88995859      12.91868138      22.71331588  F       18      -0.01874231      -0.01379910       0.02353053
O       21.81250318      11.30384628      24.05084986  F       19      -0.08748882      -0.06982345       0.11788281
O       25.96741474      11.30384610      24.05085043  F       20      -0.02182877      -0.00524809       0.01002087
Sn      20.47710831      12.91868138      24.11991567  F       21      -0.01544912       0.18022887      -0.45527872
Sn      23.88995858      11.30384618      23.99493530  F       22       0.09865548       0.04276238      -0.06124930
O       23.88995887       9.68901122      25.32920843  F       23      -0.03202011       0.00992032       0.05352971
O       20.49011943      12.96304298      26.17595357  T       24       0.00020645      -0.00422790      -0.01103890
O       22.60794642      11.29283357      27.66456636  T       25      -0.00097348      -0.00382820       0.00196639
O       25.13036998      11.31170386      27.65183729  T       26      -0.00037199      -0.00515085       0.00304361
Sn      27.30818883      11.30588630      27.65984962  T       27      -0.00475663      -0.00016994      -0.00283796
Sn      23.90096108       9.69030932      27.35340429  T       28      -0.00111067       0.00063183       0.00434643
O       27.28700523      12.91974079      28.85973221  T       29       0.00178677      -0.00415820      -0.00067365
O       27.30280959      16.14835159      12.43114757  F        0       0.00000553       0.00001406       0.00179130
O       22.63666682      14.53351708      13.63952349  F        1      -0.01635039      -0.00003310      -0.00645302
O       25.14325104      14.53351705      13.63952293  F        2       0.01631531      -0.00002228      -0.00647725
Sn      20.47710777      14.53351637      13.63204828  F        3      -0.00007811       0.00013802      -0.00407442
Sn      23.88995908      12.91868201      13.93646918  F        4       0.00004494      -0.00000357      -0.00073200
O       27.30280990      16.14835156      15.10100240  F        5       0.00000848      -0.00000961       0.00307482
O       23.88995922      12.91868161      15.96367047  F        6      -0.00009219       0.00002690       0.00394462
O       21.81250284      14.53351656      17.24202773  F        7      -0.00015125      -0.00048330      -0.00262824
O       25.96741459      14.53351656      17.24202843  F        8       0.00015999      -0.00023656      -0.00244820
Sn      27.30280954      16.14835170      17.17296284  F        9       0.00006267       0.00014642       0.02592111
Sn      23.88995868      14.53351644      17.29794302  F       10       0.00055003       0.00112219      -0.01300236
O       23.88995902      12.91868150      18.57956262  F       11      -0.00045502      -0.00107888       0.00459897
O       27.30280961      12.91868175      19.30782007  F       12      -0.00054087      -0.00049941       0.00501431
O       22.57292296      14.53351648      20.64643965  F       13      -0.00851869      -0.00452603       0.00437371
O       25.20699452      14.53351646      20.64644013  F       14       0.00396333      -0.00178648       0.00279141
Sn      27.30280962      14.53351682      20.64643955  F       15       0.00131565       0.00149588      -0.00278047
Sn      23.88995865      16.14835157      20.64643991  F       16       0.00150634       0.00522348      -0.00321448
O       27.30280961      12.91868157      21.98505885  F       17      -0.00186660      -0.00252482       0.00159087
O       23.88995859      16.14835175      22.71331588  F       18      -0.00299477      -0.00725645       0.00443568
O       21.81250318      14.53351665      24.05084986  F       19      -0.00583597      -0.01808188       0.01267475
O       25.96741474      14.53351647      24.05085043  F       20      -0.00713411      -0.00634504       0.00726009
Sn      20.47710831      16.14835174      24.11991567  F       21      -0.00802075       0.03425439      -0.01508304
Sn      23.88995858      14.53351654      23.99493530  F       22       0.01953070       0.04410977      -0.02352096
O       23.88995887      12.91868158      25.32920843  F       23      -0.05878142      -0.04606475       0.12832683
O       20.47986310      16.14786277      26.20048749  T       24      -0.00213478       0.00147218      -0.00129956
O       22.62685569      14.53476665      27.65514828  T       25      -0.00197670      -0.00369389       0.00237337
O       25.14055103      14.53939591      27.64882656  T       26       0.00255057       0.00083383       0.00103378
Sn      27.30434457      14.53615765      27.66086000  T       27       0.00037013      -0.00142699      -0.00083229
Sn      23.88755640      12.92683759      27.35921401  T       28      -0.00581449      -0.00591365      -0.00384352
O       27.29890909      16.14988710      28.86204322  T       29       0.00065872      -0.00176098      -0.00141382
O       34.12851209       3.22967013      12.43114757  F        0      -0.00000275       0.00000594       0.00178021
O       29.46236932       1.61483561      13.63952349  F        1      -0.01633331      -0.00000259      -0.00651634
O       31.96895354       1.61483559      13.63952293  F        2       0.01632777      -0.00000371      -0.00651602
Sn      27.30281027       1.61483491      13.63204828  F        3      -0.00001434      -0.00000269      -0.00386602
Sn      30.71566158       0.00000054      13.93646918  F        4       0.00000387      -0.00001918      -0.00042772
O       34.12851240       3.22967009      15.10100240  F        5      -0.00000869       0.00001204       0.00305575
O       30.71566172       0.00000015      15.96367047  F        6      -0.00001268       0.00000722       0.00355174
O       28.63820534       1.61483510      17.24202773  F        7      -0.00030451      -0.00003960      -0.00264678
O       32.79311709       1.61483510      17.24202843  F        8       0.00034335      -0.00000706      -0.00264522
Sn      34.12851204       3.22967024      17.17296284  F        9       0.00006829      -0.00000685       0.02620272
Sn      30.71566118       1.61483498      17.29794302  F       10       0.00001341       0.00002704      -0.01186359
O       30.71566152       0.00000003      18.57956262  F       11      -0.00004883      -0.00004819       0.00290522
O       34.12851211       0.00000029      19.30782007  F       12      -0.00012899      -0.00004936       0.00426244
O       29.39862546       1.61483502      20.64643965  F       13      -0.00598693      -0.00018712       0.00033233
O       32.03269702       1.61483499      20.64644013  F       14       0.00574623      -0.00007052       0.00031969
Sn      34.12851212       1.61483536      20.64643955  F       15       0.00048194       0.00011102      -0.00019607
Sn      30.71566115       3.22967011      20.64643991  F       16       0.00020432      -0.00004658      -0.00119891
O       34.12851211       0.00000010      21.98505885  F       17      -0.00037955      -0.00020172      -0.00383470
O       30.71566109       3.22967028      22.71331588  F       18      -0.00032722      -0.00005443      -0.00109750
O       28.63820568       1.61483519      24.05084986  F       19      -0.00038522      -0.00058637       0.00377969
O       32.79311724       1.61483501      24.05085043  F       20      -0.00091666      -0.00015888       0.00397873
Sn      27.30281081       3.22967028      24.11991567  F       21       0.00365749      -0.00345802      -0.03443275
Sn      30.71566108       1.61483508      23.99493530  F       22       0.00124878       0.00102334       0.00879703
O       30.71566137       0.00000012      25.32920843  F       23      -0.00321645      -0.00080922       0.01481710
O       27.30466072       3.23044499      26.19174776  T       24       0.00152164       0.00135026      -0.00011456
O       29.46235717       1.61565542      27.65706314  T       25      -0.00134814      -0.00011545      -0.00101244
O       31.97043906       1.61551910      27.65400656  T       26       0.00389719      -0.00032864       0.00104592
Sn      34.13106690       1.61505993      27.66106014  T       27      -0.00114008       0.00013381      -0.00045639
Sn      30.71677805       0.00079982      27.35727987  T       28       0.00023528      -0.00025130       0.00080800
O       34.13017354       3.22976584      28.86165911  T       29       0.00034199       0.00005935       0.00114846
O       34.12851209       6.45934050      12.43114757  F        0      -0.00000263      -0.00000162       0.00179136
O       29.46236932       4.84450598      13.63952349  F        1      -0.01632413      -0.00000558      -0.00651658
O       31.96895354       4.84450595      13.63952293  F        2       0.01631874      -0.00000313      -0.00651401
Sn      27.30281027       4.84450527      13.63204828  F        3      -0.00000151      -0.00000012      -0.00389904
Sn      30.71566158       3.22967091      13.93646918  F        4       0.00000254      -0.00000163      -0.00042200
O       34.12851240       6.45934046      15.10100240  F        5      -0.00001197       0.00000528       0.00306535
O       30.71566172       3.22967052      15.96367047  F        6      -0.00000563      -0.00001225       0.00354399
O       28.63820534       4.84450546      17.24202773  F        7      -0.00033501       0.00003926      -0.00262864
O       32.79311709       4.84450547      17.24202843  F        8       0.00033961       0.00001814      -0.00263970
Sn      34.12851204       6.45934061      17.17296284  F        9       0.00007396      -0.00003159       0.02614725
Sn      30.71566118       4.84450535      17.29794302  F       10      -0.00001336      -0.00004654      -0.01190921
O       30.71566152       3.22967040      18.57956262  F       11      -0.00001992       0.00000048       0.00286051
O       34.12851211       3.22967066      19.30782007  F       12      -0.00012733       0.00001146       0.00423580
O       29.39862546       4.84450538      20.64643965  F       13      -0.00606188       0.00020610       0.00041423
O       32.03269702       4.84450536      20.64644013  F       14       0.00580131       0.00016673       0.00031886
Sn      34.12851212       4.84450573      20.64643955  F       15       0.00057490      -0.00020344      -0.00021595
Sn      30.71566115       6.45934047      20.64643991  F       16       0.00041773      -0.00053015      -0.00193275
O       34.12851211       3.22967047      21.98505885  F       17      -0.00038938       0.00006872      -0.00393148
O       30.71566109       6.45934065      22.71331588  F       18      -0.00145138       0.00093382       0.00019578
O       28.63820568       4.84450555      24.05084986  F       19      -0.00280768       0.00646653       0.00777471
O       32.79311724       4.84450537      24.05085043  F       20      -0.00140822       0.00081964       0.00388039
Sn      27.30281081       6.45934065      24.11991567  F       21       0.00855937      -0.01285718      -0.04219303
Sn      30.71566108       4.84450545      23.99493530  F       22       0.00259608      -0.00247846       0.00761287
O       30.71566137       3.22967049      25.32920843  F       23      -0.00265939       0.00226673       0.01303016
O       27.30116665       6.46263766      26.19200449  T       24       0.00162669       0.00298292      -0.00037378
O       29.46088364       4.84621417      27.65576054  T       25       0.00094247       0.00076383      -0.00081711
O       31.97031600       4.84442086      27.65515406  T       26      -0.00005269       0.00127463       0.00021791
Sn      34.13146028       4.84450311      27.66118233  T       27      -0.00065720      -0.00053596      -0.00048408
Sn      30.71625880       3.23048694      27.35727830  T       28       0.00093060      -0.00062369       0.00013947
O       34.12963532       6.45923809      28.86174383  T       29       0.00150269      -0.00064924       0.00093013
O       34.12851209       9.68901086      12.43114757  F        0      -0.00000281       0.00002197       0.00179714
O       29.46236932       8.07417635      13.63952349  F        1      -0.01633614      -0.00000880      -0.00650926
O       31.96895354       8.07417632      13.63952293  F        2       0.01633236      -0.00000791      -0.00651378
Sn      27.30281027       8.07417564      13.63204828  F        3       0.00002297      -0.00001389      -0.00394762
Sn      30.71566158       6.45934127      13.93646918  F        4       0.00000216      -0.00000876      -0.00042516
O       34.12851240       9.68901082      15.10100240  F        5      -0.00001120       0.00000091       0.00306582
O       30.71566172       6.45934088      15.96367047  F        6      -0.00000995       0.00000345       0.00357072
O       28.63820534       8.07417583      17.24202773  F        7      -0.00041163       0.00006686      -0.00255109
O       32.79311709       8.07417583      17.24202843  F        8       0.00033925       0.00001922      -0.00261073
Sn      34.12851204       9.68901097      17.17296284  F        9       0.00008790       0.00000158       0.02607061
Sn      30.71566118       8.07417571      17.29794302  F       10       0.00005389      -0.00005162      -0.01204687
O       30.71566152       6.45934077      18.57956262  F       11      -0.00002734       0.00007828       0.00287056
O       34.12851211       6.45934102      19.30782007  F       12      -0.00015524       0.00005025       0.00428812
O       29.39862546       8.07417575      20.64643965  F       13      -0.00640017       0.00050284       0.00103061
O       32.03269702       8.07417572      20.64644013  F       14       0.00562169       0.00024864       0.00049376
Sn      34.12851212       8.07417609      20.64643955  F       15       0.00071900      -0.00020253      -0.00047447
Sn      30.71566115       9.68901084      20.64643991  F       16       0.00093096      -0.00018448      -0.00289201
O       34.12851211       6.45934083      21.98505885  F       17      -0.00047190       0.00027861      -0.00375208
O       30.71566109       9.68901101      22.71331588  F       18      -0.00242984       0.00023457       0.00145534
O       28.63820568       8.07417592      24.05084986  F       19      -0.00530802       0.00815111       0.01196060
O       32.79311724       8.07417574      24.05085043  F       20      -0.00238168       0.00059183       0.00412612
Sn      27.30281081       9.68901101      24.11991567  F       21       0.01836929      -0.00232235      -0.05448574
Sn      30.71566108       8.07417581      23.99493530  F       22       0.00850124      -0.00353403       0.00395815
O       30.71566137       6.45934085      25.32920843  F       23      -0.00487734       0.00493743       0.01571295
O       27.29160190       9.68908030      26.19263210  T       24       0.00200500       0.00026487      -0.00328249
O       29.46282475       8.07662957      27.65691967  T       25      -0.00265047       0.00060801       0.00073434
O       31.97184335       8.07294407      27.65492316  T       26      -0.00134662       0.00074227      -0.00004726
Sn      34.13275591       8.07372663      27.66093801  T       27      -0.00222273       0.00008550      -0.00009418
Sn      30.71717159       6.45936100      27.35725705  T       28      -0.00023126       0.00081121       0.00065225
O       34.12857821       9.68870692      28.86126102  T       29       0.00119363       0.00093334       0.00114590
O       34.12851209      12.91868123      12.43114757  F        0      -0.00000180       0.00001781       0.00178325
O       29.46236932      11.30384671      13.63952349  F        1      -0.01633736       0.00000534      -0.00651240
O       31.96895354      11.30384668      13.63952293  F        2       0.01633334       0.00000289      -0.00651639
Sn      27.30281027      11.30384601      13.63204828  F        3       0.00002879      -0.00000968      -0.00395855
Sn      30.71566158       9.68901164      13.93646918  F        4       0.00000608      -0.00001170      -0.00044227
O       34.12851240      12.91868119      15.10100240  F        5      -0.00001303       0.00000294       0.00305867
O       30.71566172       9.68901125      15.96367047  F        6      -0.00002552      -0.00000270       0.00359891
O       28.63820534      11.30384619      17.24202773  F        7      -0.00047992       0.00000596      -0.00249219
O       32.79311709      11.30384620      17.24202843  F        8       0.00034502      -0.00001235      -0.00259952
Sn      34.12851204      12.91868134      17.17296284  F        9       0.00007624       0.00002337       0.02608408
Sn      30.71566118      11.30384608      17.29794302  F       10       0.00009560       0.00001890      -0.01209606
O       30.71566152       9.68901113      18.57956262  F       11      -0.00007420       0.00002064       0.00294568
O       34.12851211       9.68901139      19.30782007  F       12      -0.00016868       0.00003150       0.00435038
O       29.39862546      11.30384611      20.64643965  F       13      -0.00644485      -0.00025283       0.00109174
O       32.03269702      11.30384609      20.64644013  F       14       0.00555435      -0.00011669       0.00055199
Sn      34.12851212      11.30384646      20.64643955  F       15       0.00072609       0.00007282      -0.00057940
Sn      30.71566115      12.91868120      20.64643991  F       16       0.00064159       0.00043094      -0.00246931
O       34.12851211       9.68901120      21.98505885  F       17      -0.00055961       0.00009408      -0.00368696
O       30.71566109      12.91868138      22.71331588  F       18      -0.00170694      -0.00105572       0.00087722
O       28.63820568      11.30384628      24.05084986  F       19      -0.00590660      -0.00689670       0.01434284
O       32.79311724      11.30384610      24.05085043  F       20      -0.00276327      -0.00041884       0.00427794
Sn      27.30281081      12.91868138      24.11991567  F       21       0.01168336       0.01222085      -0.04423927
Sn      30.71566108      11.30384618      23.99493530  F       22       0.00957559       0.00166844       0.00316215
O       30.71566137       9.68901122      25.32920843  F       23      -0.00604156       0.00134949       0.01527050
O       27.30022883      12.91745451      26.19199932  T       24       0.00065764      -0.00363183       0.00017267
O       29.46397577      11.30276093      27.65674392  T       25      -0.00178528      -0.00100530       0.00066427
O       31.97243828      11.30473007      27.65506263  T       26      -0.00262591      -0.00054832      -0.00036719
Sn      34.13293236      11.30385381      27.66110209  T       27      -0.00222451       0.00078977      -0.00027725
Sn      30.72219388       9.68896333      27.35714180  T       28      -0.00186377       0.00017906       0.00096446
O       34.12931890      12.91882930      28.86142603  T       29       0.00169550       0.00022030       0.00129592
O       34.12851209      16.14835159      12.43114757  F        0      -0.00000174       0.00000795       0.00178427
O       29.46236932      14.53351708      13.63952349  F        1      -0.01633388       0.00000884      -0.00651842
O       31.96895354      14.53351705      13.63952293  F        2       0.01633224       0.00000565      -0.00651810
Sn      27.30281027      14.53351637      13.63204828  F        3       0.00000713       0.00000562      -0.00390834
Sn      30.71566158      12.91868201      13.93646918  F        4       0.00000347      -0.00002667      -0.00042975
O       34.12851240      16.14835156      15.10100240  F        5      -0.00001203       0.00000500       0.00305361
O       30.71566172      12.91868161      15.96367047  F        6      -0.00002149       0.00000272       0.00358374
O       28.63820534      14.53351656      17.24202773  F        7      -0.00041129      -0.00006430      -0.00252168
O       32.79311709      14.53351656      17.24202843  F        8       0.00034109      -0.00001566      -0.00261907
Sn      34.12851204      16.14835170      17.17296284  F        9       0.00006677       0.00001519       0.02617274
Sn      30.71566118      14.53351644      17.29794302  F       10       0.00004933       0.00005766      -0.01198447
O       30.71566152      12.91868150      18.57956262  F       11      -0.00006897      -0.00005560       0.00293855
O       34.12851211      12.91868175      19.30782007  F       12      -0.00015572      -0.00005180       0.00434087
O       29.39862546      14.53351648      20.64643965  F       13      -0.00616548      -0.00032671       0.00048466
O       32.03269702      14.53351646      20.64644013  F       14       0.00567653      -0.00025526       0.00043293
Sn      34.12851212      14.53351682      20.64643955  F       15       0.00058253       0.00025907      -0.00040739
Sn      30.71566115      16.14835157      20.64643991  F       16       0.00035181       0.00037581      -0.00143849
O       34.12851211      12.91868157      21.98505885  F       17      -0.00048175      -0.00021682      -0.00362237
O       30.71566109      16.14835175      22.71331588  F       18      -0.00036031      -0.00037744      -0.00075940
O       28.63820568      14.53351665      24.05084986  F       19      -0.00239845      -0.00560614       0.00800458
O       32.79311724      14.53351647      24.05085043  F       20      -0.00196289      -0.00063653       0.00424703
Sn      27.30281081      16.14835174      24.11991567  F       21       0.00575556       0.00680175      -0.03536117
Sn      30.71566108      14.53351654      23.99493530  F       22       0.00280282       0.00339397       0.00647423
O       30.71566137      12.91868158      25.32920843  F       23      -0.00454454      -0.00358568       0.01643938
O       27.30420691      16.14823575      26.19182869  T       24      -0.00202190      -0.00140747       0.00248981
O       29.46254742      14.53259750      27.65589210  T       25      -0.00082281      -0.00102007       0.00018138
O       31.97108020      14.53483471      27.65498075  T       26       0.00099009      -0.00148623       0.00008172
Sn      34.13169012      14.53388315      27.66117454  T       27      -0.00110308       0.00000009      -0.00043333
Sn      30.71950425      12.91935970      27.35718617  T       28      -0.00208829      -0.00066881       0.00038862
O       34.13028768      16.14867507      28.86171666  T       29       0.00030011      -0.00007730       0.00020421
O       17.07540443       6.91240100      29.56423830  T        0       0.00017897       0.01036903      -0.00569400
O       17.20301171       9.21872066      29.57665246  T        0       0.00527004      -0.00509164      -0.00359178
C       16.97339484       8.03107968      31.62915163  T        0      -0.00681351      -0.00003741       0.00023462
C       17.08345270       8.05970817      30.12298421  T        0      -0.00033768       0.00053650       0.00480676
H       16.06483991       7.48579018      31.91464458  T        0      -0.00416342       0.00021196      -0.00513730
H       17.82749400       7.47545391      32.04153377  T        0      -0.01330712       0.00159530       0.00497576
H       16.95267431       9.05130019      32.02326615  T        0      -0.01141879      -0.00271388      -0.00514200
H       19.73380030       9.70215998      29.51510562  T        0      -0.01081869      -0.00390611       0.02069870
