128
Lattice="14.567458257780915 0.0 0.0 -7.283729128890462 12.615788919807672 0.0 0.0 0.0 33.04905420593702" Properties=species:S:1:pos:R:3:move_mask:L:1:spacegroup_kinds:I:1:forces:R:3 spacegroup="P 1" unit_cell=conventional occupancy="_JSON {\"0\": {\"O\": 1.0}, \"1\": {\"O\": 1.0}, \"2\": {\"O\": 1.0}, \"3\": {\"O\": 1.0}, \"4\": {\"O\": 1.0}, \"5\": {\"O\": 1.0}, \"6\": {\"O\": 1.0}, \"7\": {\"O\": 1.0}, \"8\": {\"O\": 1.0}, \"9\": {\"O\": 1.0}, \"10\": {\"O\": 1.0}, \"11\": {\"O\": 1.0}, \"12\": {\"In\": 1.0}, \"13\": {\"In\": 1.0}, \"14\": {\"In\": 1.0}, \"15\": {\"In\": 1.0}, \"16\": {\"In\": 1.0}, \"17\": {\"In\": 1.0}, \"18\": {\"In\": 1.0}, \"19\": {\"In\": 1.0}, \"20\": {\"In\": 1.0}, \"21\": {\"In\": 1.0}, \"22\": {\"In\": 1.0}, \"23\": {\"In\": 1.0}, \"24\": {\"In\": 1.0}, \"25\": {\"In\": 1.0}, \"26\": {\"In\": 1.0}, \"27\": {\"In\": 1.0}, \"28\": {\"O\": 1.0}, \"29\": {\"O\": 1.0}, \"30\": {\"O\": 1.0}, \"31\": {\"O\": 1.0}, \"32\": {\"O\": 1.0}, \"33\": {\"O\": 1.0}, \"34\": {\"O\": 1.0}, \"35\": {\"O\": 1.0}, \"36\": {\"O\": 1.0}, \"37\": {\"O\": 1.0}, \"38\": {\"O\": 1.0}, \"39\": {\"O\": 1.0}, \"40\": {\"O\": 1.0}, \"41\": {\"O\": 1.0}, \"42\": {\"O\": 1.0}, \"43\": {\"O\": 1.0}, \"44\": {\"O\": 1.0}, \"45\": {\"O\": 1.0}, \"46\": {\"O\": 1.0}, \"47\": {\"O\": 1.0}, \"48\": {\"O\": 1.0}, \"49\": {\"O\": 1.0}, \"50\": {\"O\": 1.0}, \"51\": {\"O\": 1.0}, \"52\": {\"In\": 1.0}, \"53\": {\"In\": 1.0}, \"54\": {\"In\": 1.0}, \"55\": {\"In\": 1.0}, \"56\": {\"In\": 1.0}, \"57\": {\"In\": 1.0}, \"58\": {\"In\": 1.0}, \"59\": {\"In\": 1.0}, \"60\": {\"In\": 1.0}, \"61\": {\"In\": 1.0}, \"62\": {\"In\": 1.0}, \"63\": {\"In\": 1.0}, \"64\": {\"In\": 1.0}, \"65\": {\"In\": 1.0}, \"66\": {\"In\": 1.0}, \"67\": {\"In\": 1.0}, \"68\": {\"O\": 1.0}, \"69\": {\"O\": 1.0}, \"70\": {\"O\": 1.0}, \"71\": {\"O\": 1.0}, \"72\": {\"O\": 1.0}, \"73\": {\"O\": 1.0}, \"74\": {\"O\": 1.0}, \"75\": {\"O\": 1.0}, \"76\": {\"O\": 1.0}, \"77\": {\"O\": 1.0}, \"78\": {\"O\": 1.0}, \"79\": {\"O\": 1.0}, \"80\": {\"O\": 1.0}, \"81\": {\"O\": 1.0}, \"82\": {\"O\": 1.0}, \"83\": {\"O\": 1.0}, \"84\": {\"O\": 1.0}, \"85\": {\"O\": 1.0}, \"86\": {\"O\": 1.0}, \"87\": {\"O\": 1.0}, \"88\": {\"O\": 1.0}, \"89\": {\"O\": 1.0}, \"90\": {\"O\": 1.0}, \"91\": {\"O\": 1.0}, \"92\": {\"In\": 1.0}, \"93\": {\"In\": 1.0}, \"94\": {\"In\": 1.0}, \"95\": {\"In\": 1.0}, \"96\": {\"In\": 1.0}, \"97\": {\"In\": 1.0}, \"98\": {\"In\": 1.0}, \"99\": {\"In\": 1.0}, \"100\": {\"In\": 1.0}, \"101\": {\"In\": 1.0}, \"102\": {\"In\": 1.0}, \"103\": {\"In\": 1.0}, \"104\": {\"In\": 1.0}, \"105\": {\"In\": 1.0}, \"106\": {\"In\": 1.0}, \"107\": {\"In\": 1.0}, \"108\": {\"O\": 1.0}, \"109\": {\"O\": 1.0}, \"110\": {\"O\": 1.0}, \"111\": {\"O\": 1.0}, \"112\": {\"O\": 1.0}, \"113\": {\"O\": 1.0}, \"114\": {\"O\": 1.0}, \"115\": {\"O\": 1.0}, \"116\": {\"O\": 1.0}, \"117\": {\"O\": 1.0}, \"118\": {\"O\": 1.0}, \"119\": {\"O\": 1.0}}" energy=-707.102783203125 free_energy=-707.102783203125 stress="0.007450278848409653 -4.4974596676183864e-05 -1.9835442799376324e-05 -4.4974596676183864e-05 0.007392797619104385 7.895832823123783e-06 -1.9835442799376324e-05 7.895832823123783e-06 -5.618547947960906e-05" pbc="T T T"
O        5.56112551       5.29730098      12.44442493  F        0      -0.00035839       0.02398562      -0.01251090
O        7.19929797       2.16742567      12.44442488  F        1       0.01217319      -0.02361360      -0.00351381
O        9.09076378       5.15106294      12.44442506  F        2       0.02128088       0.00948038      -0.00702155
O        3.56236441       2.32744963      12.81467041  F        3      -0.01590961      -0.03558033      -0.02669251
O       10.77064547       1.92137361      12.81467059  F        4       0.02060203      -0.00405294      -0.01645142
O        7.51817736       8.36696557      12.81467060  F        5      -0.00326538       0.02174607      -0.01275593
O       -3.86713652       8.43746206      12.95843886  F        6       0.02848130       0.00657587       0.02388990
O        1.91024068       5.04801920      12.95843918  F        7      -0.03595471       0.03631852      -0.00518149
O        1.95689587      11.74609578      12.95843921  F        8      -0.01104636      -0.03078456       0.01622522
O       -5.62751792      11.43742505      12.90107995  F        9       0.01531640      -0.00351492       0.00254643
O        0.19238766       2.02350350      12.90107932  F       10      -0.03527468       0.00653990      -0.01539946
O        5.43512990      11.77064967      12.90107909  F       11       0.00209995      -0.02147760       0.00306457
In       2.02827288       0.93415595      13.34696164  F       12       0.00726157       0.03346946       0.07033396
In       5.45297263       1.43044201      13.46548669  F       13       0.00409758       0.06380795       0.01153007
In       5.79604177       7.17815473      13.46548635  F       14      -0.00575172      -0.03930704       0.00339128
In       7.07859496      10.39217548      13.34696140  F       15       0.00211327      -0.01142134       0.00860114
In      10.60217256       4.00719198      13.46548647  F       16      -0.02720532      -0.01205141      -0.00246413
In      12.74431985       1.28945811      13.34696112  F       17      -0.00716480       0.01160450       0.01554057
In      -3.76992867      10.45841758      13.58493911  F       18      -0.01531509       0.02448285      -0.05410129
In       0.11143913       4.12172609      13.58493797  F       19       0.01807804      -0.01730248       0.02752464
In       7.28372934       4.20526284      13.28077194  F       20      -0.03125845      -0.02304751       0.04016092
In       3.65848992      10.65143468      13.58493907  F       21       0.01490321       0.00413072      -0.03783292
In      -2.12514371       7.57248039      13.82744761  F       22      -0.04053552      -0.01491171      -0.06394142
In       1.78834112       6.98912009      13.82744861  F       23       0.04297201      -0.06499094      -0.04165201
In       3.89762555       4.37439996      13.55369945  F       24       0.01876681      -0.03267728       0.08292682
In       0.33680320      10.66997741      13.82744770  F       25       0.03474167       0.05306847      -0.07061844
In       8.83030441       1.18824328      13.55369950  F       26      -0.00460124       0.04636002       0.01054104
In       9.12325787       7.05314622      13.55369981  F       27      -0.04018425      -0.02998476      -0.00288852
O        1.94314284       9.09920259      13.79983277  F       28      -0.01703238       0.02503479       0.04027650
O       -0.37515974       6.38337672      13.79983300  F       29       0.00235233       0.02206624       0.02087420
O       -1.56798334       9.74899853      13.79983313  F       30      -0.00652671      -0.00891174       0.05671021
O       -1.90665604       3.49451490      14.07374983  F       31      -0.00467298       0.01008141      -0.01621526
O       -3.30406258      12.51974383      14.07375025  F       32       0.02367234      -0.06391689       0.00841586
O        5.21071859       9.21731872      14.07374980  F       33      -0.01399335       0.00987610       0.00756785
O        6.95268262       0.11029125      14.35625235  F       34      -0.01386315      -0.07366137       0.04473838
O        3.90290295       6.53944318      14.35625252  F       35      -0.02793786       0.05480915      -0.03217157
O       10.99560128       5.96605484      14.35625280  F       36       0.02612889       0.02295887       0.01333049
O        5.60077915       3.29585311      14.56420047  F       37       0.01378351       0.02381176      -0.14351684
O        8.91277589       3.20249084      14.56420075  F       38       0.02656622      -0.00937146      -0.04205972
O        7.33763173       6.11744518      14.56420087  F       39       0.05739798       0.02958230      -0.05409265
O        1.68336921       1.02548187      15.48953070  F       40      -0.10720357      -0.07942852      -0.10889165
O       12.83768043       0.94510034      15.48953027  F       41      -0.02850953      -0.01876660      -0.01089951
O        7.33013789      10.64520717      15.48953039  F       42      -0.00923271      -0.03155995       0.00946900
O       -3.87048772      10.25806959      15.75644575  F       43       0.13566607      -0.01221934       0.08470653
O        0.33522381       4.13481358      15.75644581  F       44      -0.05195528       0.06504669      -0.00942636
O        3.53526358      10.83869431      15.75644572  F       45      -0.07285133      -0.05086796       0.08595528
O        9.24484356       0.74344663      15.94429150  F       46       0.04985881      -0.12926844       0.01248831
O        3.30515102       4.23779662      15.94429168  F       47      -0.10321307       0.16776076      -0.11387046
O        9.30119327       7.63454631      15.94429132  F       48       0.02373962       0.03860819       0.01535362
O       -1.89390768       7.68105065      15.98554452  F       49       0.04120439       0.11389333       0.13393159
O        1.57869822       7.13509120      15.98554413  F       50      -0.03662035       0.11770387       0.09422275
O        0.31520971      10.41543579      15.98554439  F       51      -0.03117335      -0.04155418       0.07421138
In      -1.57901381       3.03754313      16.29163881  F       52       0.02276596      -0.06376322      -0.00271357
In      -3.86363272      12.46448245      16.29163869  F       53      -0.15582654       0.44164327       0.09688023
In      -0.30746998       6.17668715      16.39885574  F       54       0.00767681      -0.13119270      -0.19958685
In      -1.78082649       9.79372205      16.39885556  F       55       0.03061642      -0.13808444      -0.28338671
In       2.08829635       9.26116873      16.39885555  F       56       0.03267742      -0.05626206      -0.11407925
In       5.44264624       9.72955081      16.29163837  F       57       0.06150084       0.00389679      -0.03567825
In      14.56745775       0.00000023      16.52452729  F       58       0.06801970       0.07847083      -0.03024131
In       7.28372884       0.00000046      16.52452727  F       59       0.14795861       0.46499062       0.14007956
In       3.64186448       6.30789445      16.52452688  F       60       0.13277848      -0.22497261      -0.01028489
In      -3.64186467       6.30789479      16.52452729  F       61      -0.10162028      -0.06668671      -0.00618316
In       9.06455585       2.82206686      16.65019864  F       62      -0.26057896      -0.09248959       0.16761082
In       1.84108280       2.88623741      16.75741682  F       63       0.27205753      -0.13176696       0.06775580
In       5.19543306       3.35462016      16.65019954  F       64      -0.03535019      -0.16549781       0.31451640
In      11.14736129       0.15130547      16.75741597  F       65       0.05776384       0.11882979      -0.17788211
In       7.59119877       6.43910216      16.65019924  F       66      -0.14230014      -0.13459337      -0.05777740
In       8.86274257       9.57824538      16.75741545  F       67      -0.04369272       0.01594350       0.00963195
O        9.17763668       4.93473784      17.06350958  F       68       0.05329864       0.20126978      -0.03178304
O        6.96851909       2.20035367      17.06350993  F       69       0.34748107      -0.49012452       0.20226225
O        5.70503103       5.48069763      17.06350990  F       70       0.11071718       0.56928122      -0.25777933
O       -2.01746347       4.98124236      17.10476289  F       71      -0.00394341       0.02223811       0.07516836
O       -1.96111486      11.87234229      17.10476307  F       72      -0.00368601      -0.27041063      -0.14277039
O        3.97857827       8.37799246      17.10476382  F       73      -0.20180053       0.14101911       0.16954088
O        6.94850543       8.48097521      17.29260816  F       74       0.01957107       0.02274557       0.07651392
O       11.15421650       2.35771879      17.29260829  F       75       0.16170976       0.01154399      -0.07409911
O        3.74846506       1.77709453      17.29260778  F       76      -0.31636745      -0.13198751       0.06251203
O       -0.04640858       1.97058198      17.55952389  F       77      -0.08611831      -0.00253159      -0.04465842
O       -5.55395094      11.67068958      17.55952349  F       78       0.01237243      -0.12338275      -0.05853823
O        5.60035973      11.59030666      17.55952404  F       79      -0.01911382      -0.03755376       0.00808507
O       -1.57221201       9.43243840      18.51044402  T       80      -0.00059809       0.00468192      -0.01439047
O        1.63171329       9.32842078      18.50500148  T       81       0.00771120      -0.00031200       0.00572261
O       -0.05109429       6.46558505      18.47996592  T       82       0.00693823      -0.00586703       0.00492007
O        3.36746574       6.10365342      18.70577220  T       83      -0.00516259      -0.00816461       0.00565088
O       -3.69382094       6.65321391      18.69725364  T       84      -0.00481650      -0.00656077       0.00669622
O        0.32667018      12.40533815      18.72558675  T       85      -0.00452513       0.00544164       0.00202008
O        9.20315899       9.12332720      18.97989410  T       86      -0.00372792      -0.00396442      -0.00390969
O        2.03391923       3.41620758      18.96337806  T       87      -0.00764504      -0.00214946       0.00888030
O       10.61741618       0.10498745      18.96325175  T       88       0.00599194       0.00722766      -0.00228885
O        8.88735875       2.84615965      19.15284218  T       89      -0.00260213       0.00619331       0.00891441
O        5.30974845       3.54095947      18.97223176  T       90       0.00711613       0.00355893      -0.00225845
O        7.66098816       6.23241162      19.27093593  T       91      -0.00083601      -0.00161913      -0.00556296
In      -1.85146570       5.53595469      19.49383796  T       92       0.00383344      -0.00119380       0.00494234
In      -1.65212011      11.48035820      19.33136295  T       93       0.00305527       0.01752026      -0.00058250
In       6.91846644       2.05240673      19.31358900  T       94      -0.00783810       0.00104819       0.00010904
In       3.39790095       8.22404030      19.49966554  T       95      -0.01154207      -0.01100752      -0.00727461
In       5.49235275       5.61257036      19.21673798  T       96      -0.00185931      -0.01254657      -0.01248455
In       9.39848198       5.03152320      19.21942253  T       97       0.00807746      -0.00337553      -0.00336418
In      -0.00174900       8.31043131      19.69034226  T       98       0.00993859       0.00428560       0.00532479
In       3.62786410       2.08713760      19.55720023  T       99       0.00355108       0.00787368      -0.00953065
In      11.05445277       2.17527032      19.45551084  T      100       0.00447519      -0.00141457      -0.00334702
In       7.18395650       8.48250673      19.46394599  T      101      -0.00362563       0.01295786       0.00350344
In      -5.46075773      11.35031505      19.69536266  T      102      -0.00327051       0.00217487       0.01009534
In      -3.32529916       8.59825886      19.60088233  T      103       0.00325715      -0.00833605      -0.00267369
In       0.20556068       2.22111087      19.70148880  T      104       0.00159007       0.00112206       0.00050937
In       1.49765219       5.40984144      19.60986782  T      105       0.00756624       0.00261789      -0.00824836
In       1.90399510      11.21594427      19.50609937  T      106      -0.01954946      -0.01782534       0.00244087
In       5.28329962      11.68771204      19.69907508  T      107       0.00161089      -0.00781244      -0.00507620
O        1.84149114       0.85361136      20.11636939  T      108      -0.00048329       0.00643767       0.00825250
O        7.09689746      10.58235344      20.14780075  T      109      -0.00334287       0.00122339      -0.00680757
O       12.89935839       1.18380477      20.15207259  T      110      -0.00987937      -0.00057016      -0.00876725
O        5.37876980       7.55454895      20.09507998  T      111       0.00017050      -0.00419884      -0.00592303
O       11.13209918       4.18846758      20.11539130  T      112       0.00527586      -0.00561425       0.00603300
O        5.28779821       0.82258759      19.89753661  T      113       0.00340204      -0.02162874       0.00307009
O       -0.25068505       4.25188923      20.25748403  T      114      -0.00627559      -0.01077503       0.00612867
O       -3.47423152      10.67905064      20.23819188  T      115      -0.00157973       0.00158048       0.00563329
O        3.71327783      10.28448374      20.22024832  T      116       0.00779040       0.00279545       0.00395596
O       -1.79045751       7.47181575      20.60636879  T      117      -0.01098476      -0.00472904      -0.00308186
O        0.11016666      10.42830142      20.69319335  T      118      -0.00673096       0.00049827      -0.00085437
O        1.70741807       7.32329872      20.61261645  T      119       0.00520305       0.00556318       0.00477350
O        4.32484611       2.93618858      21.58646833  T        0      -0.01492882      -0.00736150       0.01899070
O        6.61230688       2.74434206      21.51108188  T        0       0.00085086      -0.00039767      -0.01926517
C        5.45080322       2.17020878      23.51805544  T        0       0.00119177       0.01259567       0.00482234
C        5.47133716       2.64843065      22.07674530  T        0       0.00013141       0.01042345      -0.00641310
H        4.92765702       2.90296388      24.14501490  T        0       0.00781243       0.01258322       0.00696829
H        4.86281256       1.24161319      23.56667846  T        0       0.00716348       0.00617146       0.01457025
H        6.46269913       1.98981181      23.89382487  T        0      -0.00250851       0.01190265       0.00309061
H        7.34915839      -2.18750603      21.66577219  T        0       0.00739429       0.00981462      -0.00138670
