128
Lattice="14.567458257780915 0.0 0.0 -7.283729128890462 12.615788919807672 0.0 0.0 0.0 33.04905420593702" Properties=species:S:1:pos:R:3:move_mask:L:1:spacegroup_kinds:I:1:forces:R:3 spacegroup="P 1" unit_cell=conventional occupancy="_JSON {\"0\": {\"O\": 1.0}, \"1\": {\"O\": 1.0}, \"2\": {\"O\": 1.0}, \"3\": {\"O\": 1.0}, \"4\": {\"O\": 1.0}, \"5\": {\"O\": 1.0}, \"6\": {\"O\": 1.0}, \"7\": {\"O\": 1.0}, \"8\": {\"O\": 1.0}, \"9\": {\"O\": 1.0}, \"10\": {\"O\": 1.0}, \"11\": {\"O\": 1.0}, \"12\": {\"In\": 1.0}, \"13\": {\"In\": 1.0}, \"14\": {\"In\": 1.0}, \"15\": {\"In\": 1.0}, \"16\": {\"In\": 1.0}, \"17\": {\"In\": 1.0}, \"18\": {\"In\": 1.0}, \"19\": {\"In\": 1.0}, \"20\": {\"In\": 1.0}, \"21\": {\"In\": 1.0}, \"22\": {\"In\": 1.0}, \"23\": {\"In\": 1.0}, \"24\": {\"In\": 1.0}, \"25\": {\"In\": 1.0}, \"26\": {\"In\": 1.0}, \"27\": {\"In\": 1.0}, \"28\": {\"O\": 1.0}, \"29\": {\"O\": 1.0}, \"30\": {\"O\": 1.0}, \"31\": {\"O\": 1.0}, \"32\": {\"O\": 1.0}, \"33\": {\"O\": 1.0}, \"34\": {\"O\": 1.0}, \"35\": {\"O\": 1.0}, \"36\": {\"O\": 1.0}, \"37\": {\"O\": 1.0}, \"38\": {\"O\": 1.0}, \"39\": {\"O\": 1.0}, \"40\": {\"O\": 1.0}, \"41\": {\"O\": 1.0}, \"42\": {\"O\": 1.0}, \"43\": {\"O\": 1.0}, \"44\": {\"O\": 1.0}, \"45\": {\"O\": 1.0}, \"46\": {\"O\": 1.0}, \"47\": {\"O\": 1.0}, \"48\": {\"O\": 1.0}, \"49\": {\"O\": 1.0}, \"50\": {\"O\": 1.0}, \"51\": {\"O\": 1.0}, \"52\": {\"In\": 1.0}, \"53\": {\"In\": 1.0}, \"54\": {\"In\": 1.0}, \"55\": {\"In\": 1.0}, \"56\": {\"In\": 1.0}, \"57\": {\"In\": 1.0}, \"58\": {\"In\": 1.0}, \"59\": {\"In\": 1.0}, \"60\": {\"In\": 1.0}, \"61\": {\"In\": 1.0}, \"62\": {\"In\": 1.0}, \"63\": {\"In\": 1.0}, \"64\": {\"In\": 1.0}, \"65\": {\"In\": 1.0}, \"66\": {\"In\": 1.0}, \"67\": {\"In\": 1.0}, \"68\": {\"O\": 1.0}, \"69\": {\"O\": 1.0}, \"70\": {\"O\": 1.0}, \"71\": {\"O\": 1.0}, \"72\": {\"O\": 1.0}, \"73\": {\"O\": 1.0}, \"74\": {\"O\": 1.0}, \"75\": {\"O\": 1.0}, \"76\": {\"O\": 1.0}, \"77\": {\"O\": 1.0}, \"78\": {\"O\": 1.0}, \"79\": {\"O\": 1.0}, \"80\": {\"O\": 1.0}, \"81\": {\"O\": 1.0}, \"82\": {\"O\": 1.0}, \"83\": {\"O\": 1.0}, \"84\": {\"O\": 1.0}, \"85\": {\"O\": 1.0}, \"86\": {\"O\": 1.0}, \"87\": {\"O\": 1.0}, \"88\": {\"O\": 1.0}, \"89\": {\"O\": 1.0}, \"90\": {\"O\": 1.0}, \"91\": {\"O\": 1.0}, \"92\": {\"In\": 1.0}, \"93\": {\"In\": 1.0}, \"94\": {\"In\": 1.0}, \"95\": {\"In\": 1.0}, \"96\": {\"In\": 1.0}, \"97\": {\"In\": 1.0}, \"98\": {\"In\": 1.0}, \"99\": {\"In\": 1.0}, \"100\": {\"In\": 1.0}, \"101\": {\"In\": 1.0}, \"102\": {\"In\": 1.0}, \"103\": {\"In\": 1.0}, \"104\": {\"In\": 1.0}, \"105\": {\"In\": 1.0}, \"106\": {\"In\": 1.0}, \"107\": {\"In\": 1.0}, \"108\": {\"O\": 1.0}, \"109\": {\"O\": 1.0}, \"110\": {\"O\": 1.0}, \"111\": {\"O\": 1.0}, \"112\": {\"O\": 1.0}, \"113\": {\"O\": 1.0}, \"114\": {\"O\": 1.0}, \"115\": {\"O\": 1.0}, \"116\": {\"O\": 1.0}, \"117\": {\"O\": 1.0}, \"118\": {\"O\": 1.0}, \"119\": {\"O\": 1.0}}" energy=-706.91796875 free_energy=-706.91796875 stress="0.007186303846538067 -0.00017847461276687682 8.08282129582949e-05 -0.00017847461276687682 0.007572944276034832 3.0314735340652987e-05 8.08282129582949e-05 3.0314735340652987e-05 -4.961564627592452e-05" pbc="T T T"
O        5.56112551       5.29730098      12.44442493  F        0      -0.00634567       0.02426378      -0.00379050
O        7.19929797       2.16742567      12.44442488  F        1       0.00074587      -0.00246212      -0.01098597
O        9.09076378       5.15106294      12.44442506  F        2       0.00662363       0.01594792      -0.00216663
O        3.56236441       2.32744963      12.81467041  F        3      -0.01980942      -0.01597908      -0.01686966
O       10.77064547       1.92137361      12.81467059  F        4       0.03032748      -0.00253466      -0.01845109
O        7.51817736       8.36696557      12.81467060  F        5      -0.01268420       0.01821643       0.00157595
O       -3.86713652       8.43746206      12.95843886  F        6       0.01692310      -0.00093605       0.00698358
O        1.91024068       5.04801920      12.95843918  F        7      -0.01454133       0.03295149       0.00910354
O        1.95689587      11.74609578      12.95843921  F        8       0.00757821      -0.04396170       0.00359988
O       -5.62751792      11.43742505      12.90107995  F        9      -0.00325515       0.00251517       0.00513703
O        0.19238766       2.02350350      12.90107932  F       10      -0.02441072       0.00471301      -0.00667125
O        5.43512990      11.77064967      12.90107909  F       11       0.00556863      -0.03325278       0.01126879
In       2.02827288       0.93415595      13.34696164  F       12       0.02413034       0.01505566       0.02856062
In       5.45297263       1.43044201      13.46548669  F       13       0.03067603       0.00544614       0.01573563
In       5.79604177       7.17815473      13.46548635  F       14       0.01274151      -0.04666871      -0.03756779
In       7.07859496      10.39217548      13.34696140  F       15       0.01704873      -0.00075257      -0.02673201
In      10.60217256       4.00719198      13.46548647  F       16      -0.02986326      -0.00544865       0.00555301
In      12.74431985       1.28945811      13.34696112  F       17      -0.01730204       0.01768768       0.01197131
In      -3.76992867      10.45841758      13.58493911  F       18       0.00870540       0.01763858       0.01390041
In       0.11143913       4.12172609      13.58493797  F       19       0.00112964      -0.00974124       0.01324584
In       7.28372934       4.20526284      13.28077194  F       20      -0.00811686      -0.04026455       0.02463908
In       3.65848992      10.65143468      13.58493907  F       21      -0.02193153       0.03080110      -0.02856533
In      -2.12514371       7.57248039      13.82744761  F       22      -0.03763962       0.00746008      -0.01339005
In       1.78834112       6.98912009      13.82744861  F       23       0.00708710      -0.04852040      -0.06284139
In       3.89762555       4.37439996      13.55369945  F       24       0.03177334      -0.04219715       0.00982975
In       0.33680320      10.66997741      13.82744770  F       25      -0.00187606       0.07222782       0.00706963
In       8.83030441       1.18824328      13.55369950  F       26      -0.02290297       0.01902993       0.04797870
In       9.12325787       7.05314622      13.55369981  F       27      -0.00271726      -0.02930380      -0.01435018
O        1.94314284       9.09920259      13.79983277  F       28       0.01579897      -0.00317568       0.02700260
O       -0.37515974       6.38337672      13.79983300  F       29       0.03179964       0.00554177       0.01166254
O       -1.56798334       9.74899853      13.79983313  F       30      -0.01386225      -0.02282876      -0.01059312
O       -1.90665604       3.49451490      14.07374983  F       31       0.00911216       0.00507808      -0.01617871
O       -3.30406258      12.51974383      14.07375025  F       32      -0.01008922      -0.02278274      -0.03374693
O        5.21071859       9.21731872      14.07374980  F       33      -0.00029540      -0.01208800       0.07569987
O        6.95268262       0.11029125      14.35625235  F       34       0.00249949      -0.03931640      -0.05265814
O        3.90290295       6.53944318      14.35625252  F       35      -0.00048694       0.05191022       0.05287658
O       10.99560128       5.96605484      14.35625280  F       36       0.00679341       0.01517287      -0.00509977
O        5.60077915       3.29585311      14.56420047  F       37      -0.02928175       0.04823342      -0.11469495
O        8.91277589       3.20249084      14.56420075  F       38       0.01955451       0.00649421      -0.07821226
O        7.33763173       6.11744518      14.56420087  F       39       0.00858097       0.04651342      -0.00259858
O        1.68336921       1.02548187      15.48953070  F       40      -0.07501080      -0.03336909      -0.05293512
O       12.83768043       0.94510034      15.48953027  F       41       0.02392139      -0.04538034       0.00129779
O        7.33013789      10.64520717      15.48953039  F       42      -0.02688298      -0.06072978       0.06169465
O       -3.87048772      10.25806959      15.75644575  F       43      -0.00545755      -0.00974968      -0.01525614
O        0.33522381       4.13481358      15.75644581  F       44      -0.00890979       0.02560299      -0.00252023
O        3.53526358      10.83869431      15.75644572  F       45       0.03187954      -0.08622468       0.04462762
O        9.24484356       0.74344663      15.94429150  F       46       0.12632708      -0.12283888      -0.08539979
O        3.30515102       4.23779662      15.94429168  F       47      -0.10267544       0.17933787      -0.00047874
O        9.30119327       7.63454631      15.94429132  F       48      -0.06797726       0.05635607       0.02797619
O       -1.89390768       7.68105065      15.98554452  F       49       0.02073908      -0.01131308       0.02704809
O        1.57869822       7.13509120      15.98554413  F       50       0.12214842       0.02275495       0.10290177
O        0.31520971      10.41543579      15.98554439  F       51       0.00752561      -0.02077612      -0.02211099
In      -1.57901381       3.03754313      16.29163881  F       52      -0.06468735      -0.03171736       0.01217887
In      -3.86363272      12.46448245      16.29163869  F       53       0.06325368       0.15974207       0.02851925
In      -0.30746998       6.17668715      16.39885574  F       54      -0.05285034      -0.03478207       0.00831755
In      -1.78082649       9.79372205      16.39885556  F       55       0.00910033       0.04511514       0.03458412
In       2.08829635       9.26116873      16.39885555  F       56      -0.15972796       0.14456996      -0.30389720
In       5.44264624       9.72955081      16.29163837  F       57       0.00605338       0.16533403      -0.14027242
In      14.56745775       0.00000023      16.52452729  F       58       0.05461594       0.07823864      -0.04766759
In       7.28372884       0.00000046      16.52452727  F       59      -0.01852349       0.34824556       0.23877946
In       3.64186448       6.30789445      16.52452688  F       60       0.20145297      -0.26645789       0.06773175
In      -3.64186467       6.30789479      16.52452729  F       61      -0.06435376      -0.04378657       0.06658998
In       9.06455585       2.82206686      16.65019864  F       62      -0.22880355      -0.13929430       0.22771502
In       1.84108280       2.88623741      16.75741682  F       63       0.10359240      -0.02825513      -0.02391205
In       5.19543306       3.35462016      16.65019954  F       64       0.10168205      -0.22323386       0.20537725
In      11.14736129       0.15130547      16.75741597  F       65      -0.09955278       0.11074553      -0.05792332
In       7.59119877       6.43910216      16.65019924  F       66      -0.02197649      -0.27263319      -0.12354673
In       8.86274257       9.57824538      16.75741545  F       67       0.22566949       0.14969200      -0.33541813
O        9.17763668       4.93473784      17.06350958  F       68      -0.04191101       0.34666389      -0.05899133
O        6.96851909       2.20035367      17.06350993  F       69       0.18516171      -0.19551292      -0.00196072
O        5.70503103       5.48069763      17.06350990  F       70       0.09091327       0.36340651       0.20028627
O       -2.01746347       4.98124236      17.10476289  F       71       0.01942326       0.03629240       0.06006534
O       -1.96111486      11.87234229      17.10476307  F       72       0.00780137      -0.09777135       0.03219689
O        3.97857827       8.37799246      17.10476382  F       73      -0.04109716       0.01597412       0.23020816
O        6.94850543       8.48097521      17.29260816  F       74      -0.08638477       0.03666005       0.24652107
O       11.15421650       2.35771879      17.29260829  F       75       0.32841924      -0.07917154      -0.14957997
O        3.74846506       1.77709453      17.29260778  F       76      -0.43473750      -0.42191571      -0.38443026
O       -0.04640858       1.97058198      17.55952389  F       77       0.01401405       0.01048851       0.01047771
O       -5.55395094      11.67068958      17.55952349  F       78      -0.04623857      -0.02469520       0.02749994
O        5.60035973      11.59030666      17.55952404  F       79       0.01874695      -0.09569697      -0.01551804
O       -1.61048863       9.41978284      18.48793634  T       80       0.00176042      -0.00306123       0.00041413
O        1.64189409       9.34808896      18.46526668  T       81      -0.00563942      -0.00072300       0.00564754
O       -0.03553136       6.49675330      18.48599734  T       82      -0.00895655      -0.00315432       0.01398343
O        3.46336457       6.13618342      18.75679993  T       83       0.01415482       0.01414934       0.01392277
O       -3.71800996       6.64205444      18.70651005  T       84      -0.00531450      -0.00032142       0.00390876
O        0.33329303      12.53161628      18.71073756  T       85      -0.01384902      -0.00352079       0.00629444
O        9.26795403       9.13780577      18.93749287  T       86       0.00700708       0.00727683      -0.00637297
O        2.06746147       3.42316174      18.97554736  T       87      -0.00458890      -0.01139018       0.00677057
O       10.60453237       0.07118878      18.98939069  T       88      -0.00557020       0.00460361      -0.00087868
O        8.92429582       2.84932797      19.07214843  T       89      -0.01005948      -0.01049653      -0.00880712
O        5.24351290       3.42790974      18.96143590  T       90       0.00696298      -0.01419508       0.01941484
O        7.62863178       6.27816252      19.22400220  T       91       0.00817271      -0.00724599       0.00217742
In      -1.84035079       5.55388869      19.49563822  T       92      -0.01182581      -0.00308153       0.00848261
In      -1.52983594      11.45757821      19.48983201  T       93      -0.00504148       0.00403028       0.00853781
In       6.95547632       2.02125795      19.28373350  T       94      -0.00130552       0.00325845       0.00114466
In       3.28982412       8.26606582      19.43820185  T       95       0.00648636      -0.01122808      -0.00717563
In       5.52111251       5.48754986      19.28596342  T       96      -0.00958708       0.01783004       0.00759513
In       9.40381864       5.01925374      19.21654675  T       97      -0.00636089       0.00814305      -0.00917107
In      -0.01831409       8.41822547      19.77316438  T       98      -0.00112842      -0.00370989      -0.00606968
In       3.62858079       1.94899614      19.43097053  T       99      -0.00597217      -0.00360141       0.00149992
In      11.05295500       2.15571346      19.44792797  T      100       0.00458119      -0.00043575      -0.00404821
In       7.30878769       8.49253420      19.42542185  T      101      -0.00958693      -0.01082347      -0.00090016
In      -5.42568761      11.34687473      19.69758079  T      102      -0.00456908       0.00311829      -0.00325319
In      -3.28053312       8.60886215      19.59381514  T      103      -0.01709927      -0.00720940      -0.01085517
In       0.20175057       2.22967835      19.69829001  T      104      -0.01099675       0.01274232       0.00411117
In       1.49037984       5.43200540      19.59986455  T      105       0.00780636      -0.00000567      -0.00175162
In       1.81638746      11.21462902      19.59245594  T      106       0.00063728      -0.00374822      -0.00359373
In       5.26100164      11.66814362      19.68984250  T      107      -0.00717974      -0.00056365       0.00218359
O        1.84561063       0.85583524      20.14011541  T      108       0.00806571       0.00102066      -0.01136351
O        7.11635845      10.54156604      20.12765250  T      109       0.00603426       0.00560210       0.00168756
O       12.91587590       1.15917501      20.13926171  T      110      -0.01193548      -0.00060406      -0.00044465
O        5.40266140       7.64622906      20.19622519  T      111      -0.00092849       0.00297510      -0.00333917
O       11.14752106       4.17528205      20.10895444  T      112       0.00343083       0.00478719       0.00571167
O        5.32721576       0.87494798      20.09364959  T      113      -0.00992085       0.00506353       0.01427203
O       -0.23841524       4.25197469      20.24979970  T      114      -0.00042756      -0.00396770       0.00240219
O       -3.46728657      10.69489109      20.24238393  T      115      -0.00516027       0.01128183       0.01287246
O        3.72668828      10.24517835      20.21142286  T      116      -0.00349239       0.00766571      -0.00104117
O       -1.79395363       7.45262109      20.61416454  T      117      -0.00055903      -0.00698156       0.00985444
O        0.09265835      10.44560819      20.61537640  T      118       0.00151096       0.00788319      -0.00291979
O        1.71555296       7.32419374      20.60933862  T      119      -0.01352221       0.00009364      -0.00099975
O        7.12123955       3.37014387      21.24792916  T        0      -0.01405683       0.00689960      -0.00120515
O        5.61308697       5.06150772      21.47888058  T        0       0.00352269      -0.00174254      -0.00607926
C        6.25739137       3.82490328      23.40985702  T        0      -0.00445745       0.00249713      -0.00622903
C        6.33983811       4.10086259      21.92792871  T        0       0.01208399      -0.00353057      -0.01563120
H        5.63982228       2.92912885      23.57080800  T        0       0.00305052      -0.00591346      -0.00448124
H        7.25767057       3.60123551      23.79969509  T        0      -0.00640178      -0.00253379       0.00386497
H        5.80566520       4.66925783      23.94060376  T        0      -0.01165426      -0.00445685      -0.00467971
H        5.40259472       7.50162017      21.16528139  T        0      -0.00058725       0.00672619      -0.00346822
