128
Lattice="14.567458257780915 0.0 0.0 -7.283729128890462 12.615788919807672 0.0 0.0 0.0 33.04905420593702" Properties=species:S:1:pos:R:3:move_mask:L:1:spacegroup_kinds:I:1:forces:R:3 spacegroup="P 1" unit_cell=conventional occupancy="_JSON {\"0\": {\"O\": 1.0}, \"1\": {\"O\": 1.0}, \"2\": {\"O\": 1.0}, \"3\": {\"O\": 1.0}, \"4\": {\"O\": 1.0}, \"5\": {\"O\": 1.0}, \"6\": {\"O\": 1.0}, \"7\": {\"O\": 1.0}, \"8\": {\"O\": 1.0}, \"9\": {\"O\": 1.0}, \"10\": {\"O\": 1.0}, \"11\": {\"O\": 1.0}, \"12\": {\"In\": 1.0}, \"13\": {\"In\": 1.0}, \"14\": {\"In\": 1.0}, \"15\": {\"In\": 1.0}, \"16\": {\"In\": 1.0}, \"17\": {\"In\": 1.0}, \"18\": {\"In\": 1.0}, \"19\": {\"In\": 1.0}, \"20\": {\"In\": 1.0}, \"21\": {\"In\": 1.0}, \"22\": {\"In\": 1.0}, \"23\": {\"In\": 1.0}, \"24\": {\"In\": 1.0}, \"25\": {\"In\": 1.0}, \"26\": {\"In\": 1.0}, \"27\": {\"In\": 1.0}, \"28\": {\"O\": 1.0}, \"29\": {\"O\": 1.0}, \"30\": {\"O\": 1.0}, \"31\": {\"O\": 1.0}, \"32\": {\"O\": 1.0}, \"33\": {\"O\": 1.0}, \"34\": {\"O\": 1.0}, \"35\": {\"O\": 1.0}, \"36\": {\"O\": 1.0}, \"37\": {\"O\": 1.0}, \"38\": {\"O\": 1.0}, \"39\": {\"O\": 1.0}, \"40\": {\"O\": 1.0}, \"41\": {\"O\": 1.0}, \"42\": {\"O\": 1.0}, \"43\": {\"O\": 1.0}, \"44\": {\"O\": 1.0}, \"45\": {\"O\": 1.0}, \"46\": {\"O\": 1.0}, \"47\": {\"O\": 1.0}, \"48\": {\"O\": 1.0}, \"49\": {\"O\": 1.0}, \"50\": {\"O\": 1.0}, \"51\": {\"O\": 1.0}, \"52\": {\"In\": 1.0}, \"53\": {\"In\": 1.0}, \"54\": {\"In\": 1.0}, \"55\": {\"In\": 1.0}, \"56\": {\"In\": 1.0}, \"57\": {\"In\": 1.0}, \"58\": {\"In\": 1.0}, \"59\": {\"In\": 1.0}, \"60\": {\"In\": 1.0}, \"61\": {\"In\": 1.0}, \"62\": {\"In\": 1.0}, \"63\": {\"In\": 1.0}, \"64\": {\"In\": 1.0}, \"65\": {\"In\": 1.0}, \"66\": {\"In\": 1.0}, \"67\": {\"In\": 1.0}, \"68\": {\"O\": 1.0}, \"69\": {\"O\": 1.0}, \"70\": {\"O\": 1.0}, \"71\": {\"O\": 1.0}, \"72\": {\"O\": 1.0}, \"73\": {\"O\": 1.0}, \"74\": {\"O\": 1.0}, \"75\": {\"O\": 1.0}, \"76\": {\"O\": 1.0}, \"77\": {\"O\": 1.0}, \"78\": {\"O\": 1.0}, \"79\": {\"O\": 1.0}, \"80\": {\"O\": 1.0}, \"81\": {\"O\": 1.0}, \"82\": {\"O\": 1.0}, \"83\": {\"O\": 1.0}, \"84\": {\"O\": 1.0}, \"85\": {\"O\": 1.0}, \"86\": {\"O\": 1.0}, \"87\": {\"O\": 1.0}, \"88\": {\"O\": 1.0}, \"89\": {\"O\": 1.0}, \"90\": {\"O\": 1.0}, \"91\": {\"O\": 1.0}, \"92\": {\"In\": 1.0}, \"93\": {\"In\": 1.0}, \"94\": {\"In\": 1.0}, \"95\": {\"In\": 1.0}, \"96\": {\"In\": 1.0}, \"97\": {\"In\": 1.0}, \"98\": {\"In\": 1.0}, \"99\": {\"In\": 1.0}, \"100\": {\"In\": 1.0}, \"101\": {\"In\": 1.0}, \"102\": {\"In\": 1.0}, \"103\": {\"In\": 1.0}, \"104\": {\"In\": 1.0}, \"105\": {\"In\": 1.0}, \"106\": {\"In\": 1.0}, \"107\": {\"In\": 1.0}, \"108\": {\"O\": 1.0}, \"109\": {\"O\": 1.0}, \"110\": {\"O\": 1.0}, \"111\": {\"O\": 1.0}, \"112\": {\"O\": 1.0}, \"113\": {\"O\": 1.0}, \"114\": {\"O\": 1.0}, \"115\": {\"O\": 1.0}, \"116\": {\"O\": 1.0}, \"117\": {\"O\": 1.0}, \"118\": {\"O\": 1.0}, \"119\": {\"O\": 1.0}}" energy=-707.2579345703125 free_energy=-707.2579345703125 stress="0.007487614639103413 0.00022265470761340111 1.6436242731288075e-05 0.00022265470761340111 0.007089586928486824 5.4285152145894244e-05 1.6436242731288075e-05 5.4285152145894244e-05 5.1542374421842396e-05" pbc="T T T"
O        5.56112551       5.29730098      12.44442493  F        0      -0.00660335       0.01305138       0.01206899
O        7.19929797       2.16742567      12.44442488  F        1       0.00315437      -0.00733185       0.00262320
O        9.09076378       5.15106294      12.44442506  F        2       0.00280130       0.00402734       0.00699222
O        3.56236441       2.32744963      12.81467041  F        3       0.00774476      -0.00473482      -0.01443958
O       10.77064547       1.92137361      12.81467059  F        4      -0.00378872       0.00111568      -0.00908577
O        7.51817736       8.36696557      12.81467060  F        5      -0.01396022       0.00168639      -0.00095946
O       -3.86713652       8.43746206      12.95843886  F        6       0.02305058      -0.00991879       0.01160407
O        1.91024068       5.04801920      12.95843918  F        7       0.00377390       0.03970618       0.00806969
O        1.95689587      11.74609578      12.95843921  F        8      -0.00923690      -0.02475253       0.02229255
O       -5.62751792      11.43742505      12.90107995  F        9       0.01006167      -0.00001187      -0.00571477
O        0.19238766       2.02350350      12.90107932  F       10      -0.03034990       0.00666824      -0.01351553
O        5.43512990      11.77064967      12.90107909  F       11      -0.00543987      -0.04217415       0.00433904
In       2.02827288       0.93415595      13.34696164  F       12      -0.00188511       0.01741247       0.07143175
In       5.45297263       1.43044201      13.46548669  F       13      -0.01091106      -0.00259442      -0.01206358
In       5.79604177       7.17815473      13.46548635  F       14       0.01495446      -0.02198072      -0.04608244
In       7.07859496      10.39217548      13.34696140  F       15       0.02218778       0.00875468       0.01619734
In      10.60217256       4.00719198      13.46548647  F       16       0.00925756      -0.00137668      -0.02252470
In      12.74431985       1.28945811      13.34696112  F       17       0.00459983       0.00870425       0.04987213
In      -3.76992867      10.45841758      13.58493911  F       18      -0.00703275       0.01872149       0.01781812
In       0.11143913       4.12172609      13.58493797  F       19       0.01068444      -0.02217795       0.05619903
In       7.28372934       4.20526284      13.28077194  F       20      -0.00524149      -0.01167867      -0.00799240
In       3.65848992      10.65143468      13.58493907  F       21       0.00366829       0.02143472      -0.05308697
In      -2.12514371       7.57248039      13.82744761  F       22      -0.02960993       0.00310553      -0.03651148
In       1.78834112       6.98912009      13.82744861  F       23      -0.00890739      -0.05565567      -0.02541570
In       3.89762555       4.37439996      13.55369945  F       24       0.00476019      -0.03706953       0.00606117
In       0.33680320      10.66997741      13.82744770  F       25       0.00540964       0.03931095      -0.04630132
In       8.83030441       1.18824328      13.55369950  F       26      -0.00105451       0.01905957      -0.00481979
In       9.12325787       7.05314622      13.55369981  F       27      -0.00583275      -0.00330490      -0.00400988
O        1.94314284       9.09920259      13.79983277  F       28       0.01291598       0.02200556       0.03738081
O       -0.37515974       6.38337672      13.79983300  F       29       0.01026905       0.01562440       0.01139939
O       -1.56798334       9.74899853      13.79983313  F       30       0.00506276      -0.01476423       0.01075697
O       -1.90665604       3.49451490      14.07374983  F       31      -0.02588897       0.02151662      -0.01703294
O       -3.30406258      12.51974383      14.07375025  F       32       0.02508202      -0.01619491      -0.03194551
O        5.21071859       9.21731872      14.07374980  F       33      -0.02948064      -0.02171075       0.05977900
O        6.95268262       0.11029125      14.35625235  F       34       0.00690079      -0.01790506       0.01118918
O        3.90290295       6.53944318      14.35625252  F       35       0.01137373       0.05552143       0.07375561
O       10.99560128       5.96605484      14.35625280  F       36       0.00610340       0.00017229       0.02159506
O        5.60077915       3.29585311      14.56420047  F       37       0.01116773       0.03040072      -0.00419134
O        8.91277589       3.20249084      14.56420075  F       38      -0.01415093      -0.01144207       0.00659132
O        7.33763173       6.11744518      14.56420087  F       39       0.00672534       0.00398175       0.02175039
O        1.68336921       1.02548187      15.48953070  F       40       0.05199828      -0.03845719      -0.09276567
O       12.83768043       0.94510034      15.48953027  F       41      -0.09988751      -0.04317221      -0.06861091
O        7.33013789      10.64520717      15.48953039  F       42      -0.04038999      -0.04512055      -0.00969449
O       -3.87048772      10.25806959      15.75644575  F       43       0.05734208      -0.02990258      -0.01475670
O        0.33522381       4.13481358      15.75644581  F       44      -0.05132297       0.15339041      -0.07270081
O        3.53526358      10.83869431      15.75644572  F       45      -0.04728383      -0.11969201       0.06373702
O        9.24484356       0.74344663      15.94429150  F       46       0.00366986      -0.02726239      -0.00905520
O        3.30515102       4.23779662      15.94429168  F       47       0.05794859       0.15252140       0.01787317
O        9.30119327       7.63454631      15.94429132  F       48      -0.01956172       0.00151038      -0.00028393
O       -1.89390768       7.68105065      15.98554452  F       49       0.07681090      -0.03692061       0.07428484
O        1.57869822       7.13509120      15.98554413  F       50       0.09634727       0.09359768      -0.03133357
O        0.31520971      10.41543579      15.98554439  F       51       0.04842849      -0.06463030       0.09334058
In      -1.57901381       3.03754313      16.29163881  F       52       0.19946268      -0.15585327       0.15158921
In      -3.86363272      12.46448245      16.29163869  F       53      -0.08260473       0.09957723       0.02412269
In      -0.30746998       6.17668715      16.39885574  F       54       0.15224922      -0.05178791       0.15267730
In      -1.78082649       9.79372205      16.39885556  F       55      -0.08881080       0.06832665      -0.22280665
In       2.08829635       9.26116873      16.39885555  F       56      -0.17096315       0.02357691      -0.27972752
In       5.44264624       9.72955081      16.29163837  F       57       0.18633756       0.16464947      -0.11840081
In      14.56745775       0.00000023      16.52452729  F       58       0.07465290       0.22705393       0.11396097
In       7.28372884       0.00000046      16.52452727  F       59      -0.00608963       0.05725468      -0.03044956
In       3.64186448       6.30789445      16.52452688  F       60      -0.12734404      -0.26423639      -0.04344849
In      -3.64186467       6.30789479      16.52452729  F       61      -0.10037568       0.01621145      -0.09769268
In       9.06455585       2.82206686      16.65019864  F       62       0.01383968      -0.01812989       0.02330135
In       1.84108280       2.88623741      16.75741682  F       63      -0.18951815      -0.11469740       0.12162207
In       5.19543306       3.35462016      16.65019954  F       64      -0.07358149      -0.10312900      -0.03154480
In      11.14736129       0.15130547      16.75741597  F       65       0.03596117       0.08505055       0.00729899
In       7.59119877       6.43910216      16.65019924  F       66       0.04862107      -0.02438088      -0.04906021
In       8.86274257       9.57824538      16.75741545  F       67       0.03715495       0.08456691      -0.08871445
O        9.17763668       4.93473784      17.06350958  F       68      -0.02509479       0.04309404       0.00175897
O        6.96851909       2.20035367      17.06350993  F       69       0.00157984      -0.01730159      -0.01154266
O        5.70503103       5.48069763      17.06350990  F       70      -0.19161572       0.10149379       0.15065543
O       -2.01746347       4.98124236      17.10476289  F       71       0.08403397       0.26833707       0.08960980
O       -1.96111486      11.87234229      17.10476307  F       72       0.03842829      -0.03481948       0.06983989
O        3.97857827       8.37799246      17.10476382  F       73       0.06275475       0.04415526       0.07616375
O        6.94850543       8.48097521      17.29260816  F       74      -0.07270169      -0.02135018       0.06380513
O       11.15421650       2.35771879      17.29260829  F       75      -0.02253973       0.01738617      -0.00635208
O        3.74846506       1.77709453      17.29260778  F       76       0.18055415      -0.06022176      -0.17235956
O       -0.04640858       1.97058198      17.55952389  F       77      -0.03751153      -0.08259115       0.16489716
O       -5.55395094      11.67068958      17.55952349  F       78       0.02064629      -0.22551455      -0.18759800
O        5.60035973      11.59030666      17.55952404  F       79      -0.08220112      -0.10271743      -0.02480492
O       -1.66061253       9.42110062      18.47307775  T       80       0.00577355       0.01155001      -0.00128531
O        1.69743759       9.29183863      18.49265034  T       81      -0.00427210      -0.00529931       0.01754612
O        0.05505018       6.55709863      18.50361562  T       82      -0.00844133      -0.00132431       0.01233196
O        3.33486807       6.14225648      18.73820702  T       83      -0.01123431      -0.00434819       0.00695761
O       -3.71388586       6.65234492      18.69126261  T       84      -0.00387412      -0.00238240      -0.00473326
O        0.33169402      12.49227566      18.69208537  T       85      -0.01369640       0.00795852      -0.01261304
O        9.19893435       9.10801607      18.97093172  T       86      -0.01153720       0.01365840       0.00307962
O        2.09052264       3.37434520      18.90862591  T       87       0.00333124      -0.00340304       0.00619854
O       10.58503163       0.09526772      18.97879399  T       88       0.00277346      -0.00315323       0.00759050
O        8.84905776       2.86226654      19.23547285  T       89      -0.00203699      -0.01847257       0.00877178
O        5.33679913       3.52021198      19.24679277  T       90      -0.00268070      -0.00734806       0.00055075
O        7.64537307       6.23008350      19.25160569  T       91       0.00241652      -0.00582394      -0.00085908
In      -1.86348501       5.56883479      19.43454796  T       92       0.00198517       0.00619079       0.00841859
In      -1.56476768      11.44595702      19.48930055  T       93      -0.00483764      -0.00068996      -0.00110207
In       6.94880575       1.94820448      19.21861640  T       94      -0.00557411      -0.00455990       0.00342169
In       3.48492707       8.30179553      19.38098163  T       95      -0.01361485       0.00610979       0.00365416
In       5.48093223       5.61710150      19.23238636  T       96      -0.00063653      -0.01006144      -0.00028116
In       9.39054300       5.03152093      19.22298766  T       97      -0.00226508       0.01233189       0.00652960
In      -0.06751592       8.45104763      19.66462310  T       98       0.00795029      -0.00162685      -0.00041692
In       3.61991343       1.95220655      19.45546251  T       99      -0.00305392      -0.00857978      -0.00500835
In      11.08070411       2.16444646      19.46363929  T      100      -0.00336181       0.01032186      -0.00878105
In       7.19126135       8.48430905      19.46524355  T      101       0.00122477      -0.01727825      -0.00174680
In      -5.45288670      11.30827310      19.68947255  T      102       0.00206828      -0.00468766      -0.00689329
In      -3.33741806       8.60387615      19.60426399  T      103       0.02278376      -0.00816789       0.00557737
In       0.25226821       2.21937283      19.79805573  T      104       0.01523272      -0.00973563       0.00026653
In       1.51722615       5.31960016      19.66435457  T      105       0.00446360      -0.00513548      -0.01402168
In       1.83372453      11.19765705      19.58660849  T      106      -0.01101134       0.00992868      -0.00185420
In       5.27599004      11.69840497      19.69768694  T      107       0.00332376       0.00293952      -0.00038062
O        1.88276108       0.78343524      20.02376326  T      108       0.00640423       0.01207569      -0.00513130
O        7.09288483      10.57360891      20.14259562  T      109      -0.00867285      -0.00984909      -0.00305945
O       12.91775690       1.17221960      20.14516993  T      110       0.00740322      -0.00021862      -0.00181562
O        5.38213926       7.56430955      20.09579826  T      111      -0.00113355       0.00345609      -0.01099917
O       11.12652100       4.18668676      20.09049148  T      112      -0.00354037      -0.00891739       0.00948131
O        5.33635417       0.88050360      20.09239715  T      113      -0.00031049      -0.00468169       0.00759506
O       -0.33624042       4.25265948      20.00918338  T      114      -0.01567680      -0.01091146      -0.01198301
O       -3.47761843      10.67837939      20.25176781  T      115       0.00413179       0.00110841       0.00832206
O        3.73166894      10.28921877      20.22170932  T      116       0.00930545      -0.01603100       0.00610101
O       -1.79459769       7.46133871      20.58800945  T      117      -0.00220178       0.00010143      -0.00126565
O        0.08153397      10.43258920      20.58169050  T      118       0.00547847      -0.00332990       0.00013471
O        1.72881362       7.43186314      20.65680457  T      119       0.00755781       0.00178036       0.00073242
O        1.12573559       2.74732190      21.93524238  T        0       0.00336301       0.01279628       0.00863899
O        2.15144496       4.78143055      21.72209447  T        0       0.00433648      -0.00985444       0.00272569
C        1.80950331       3.91880940      23.89438021  T        0       0.01779563       0.00665075       0.00274142
C        1.66746844       3.78993090      22.38882557  T        0      -0.01764005       0.00954585       0.00216258
H        1.59482934       2.96751110      24.39025030  T        0       0.00265080       0.00225436      -0.01450200
H        2.81841143       4.27227544      24.14018357  T        0      -0.00813162      -0.00812482       0.00033214
H        1.10855831       4.68025662      24.26499284  T        0       0.00598970      -0.00148149      -0.00882875
H        1.80365759       7.35294691      21.62494347  T        0      -0.00006852       0.01965218      -0.00320905
