128
Lattice="14.567458257780915 0.0 0.0 -7.283729128890462 12.615788919807672 0.0 0.0 0.0 33.04905420593702" Properties=species:S:1:pos:R:3:move_mask:L:1:spacegroup_kinds:I:1:forces:R:3 spacegroup="P 1" unit_cell=conventional occupancy="_JSON {\"0\": {\"O\": 1.0}, \"1\": {\"O\": 1.0}, \"2\": {\"O\": 1.0}, \"3\": {\"O\": 1.0}, \"4\": {\"O\": 1.0}, \"5\": {\"O\": 1.0}, \"6\": {\"O\": 1.0}, \"7\": {\"O\": 1.0}, \"8\": {\"O\": 1.0}, \"9\": {\"O\": 1.0}, \"10\": {\"O\": 1.0}, \"11\": {\"O\": 1.0}, \"12\": {\"In\": 1.0}, \"13\": {\"In\": 1.0}, \"14\": {\"In\": 1.0}, \"15\": {\"In\": 1.0}, \"16\": {\"In\": 1.0}, \"17\": {\"In\": 1.0}, \"18\": {\"In\": 1.0}, \"19\": {\"In\": 1.0}, \"20\": {\"In\": 1.0}, \"21\": {\"In\": 1.0}, \"22\": {\"In\": 1.0}, \"23\": {\"In\": 1.0}, \"24\": {\"In\": 1.0}, \"25\": {\"In\": 1.0}, \"26\": {\"In\": 1.0}, \"27\": {\"In\": 1.0}, \"28\": {\"O\": 1.0}, \"29\": {\"O\": 1.0}, \"30\": {\"O\": 1.0}, \"31\": {\"O\": 1.0}, \"32\": {\"O\": 1.0}, \"33\": {\"O\": 1.0}, \"34\": {\"O\": 1.0}, \"35\": {\"O\": 1.0}, \"36\": {\"O\": 1.0}, \"37\": {\"O\": 1.0}, \"38\": {\"O\": 1.0}, \"39\": {\"O\": 1.0}, \"40\": {\"O\": 1.0}, \"41\": {\"O\": 1.0}, \"42\": {\"O\": 1.0}, \"43\": {\"O\": 1.0}, \"44\": {\"O\": 1.0}, \"45\": {\"O\": 1.0}, \"46\": {\"O\": 1.0}, \"47\": {\"O\": 1.0}, \"48\": {\"O\": 1.0}, \"49\": {\"O\": 1.0}, \"50\": {\"O\": 1.0}, \"51\": {\"O\": 1.0}, \"52\": {\"In\": 1.0}, \"53\": {\"In\": 1.0}, \"54\": {\"In\": 1.0}, \"55\": {\"In\": 1.0}, \"56\": {\"In\": 1.0}, \"57\": {\"In\": 1.0}, \"58\": {\"In\": 1.0}, \"59\": {\"In\": 1.0}, \"60\": {\"In\": 1.0}, \"61\": {\"In\": 1.0}, \"62\": {\"In\": 1.0}, \"63\": {\"In\": 1.0}, \"64\": {\"In\": 1.0}, \"65\": {\"In\": 1.0}, \"66\": {\"In\": 1.0}, \"67\": {\"In\": 1.0}, \"68\": {\"O\": 1.0}, \"69\": {\"O\": 1.0}, \"70\": {\"O\": 1.0}, \"71\": {\"O\": 1.0}, \"72\": {\"O\": 1.0}, \"73\": {\"O\": 1.0}, \"74\": {\"O\": 1.0}, \"75\": {\"O\": 1.0}, \"76\": {\"O\": 1.0}, \"77\": {\"O\": 1.0}, \"78\": {\"O\": 1.0}, \"79\": {\"O\": 1.0}, \"80\": {\"O\": 1.0}, \"81\": {\"O\": 1.0}, \"82\": {\"O\": 1.0}, \"83\": {\"O\": 1.0}, \"84\": {\"O\": 1.0}, \"85\": {\"O\": 1.0}, \"86\": {\"O\": 1.0}, \"87\": {\"O\": 1.0}, \"88\": {\"O\": 1.0}, \"89\": {\"O\": 1.0}, \"90\": {\"O\": 1.0}, \"91\": {\"O\": 1.0}, \"92\": {\"In\": 1.0}, \"93\": {\"In\": 1.0}, \"94\": {\"In\": 1.0}, \"95\": {\"In\": 1.0}, \"96\": {\"In\": 1.0}, \"97\": {\"In\": 1.0}, \"98\": {\"In\": 1.0}, \"99\": {\"In\": 1.0}, \"100\": {\"In\": 1.0}, \"101\": {\"In\": 1.0}, \"102\": {\"In\": 1.0}, \"103\": {\"In\": 1.0}, \"104\": {\"In\": 1.0}, \"105\": {\"In\": 1.0}, \"106\": {\"In\": 1.0}, \"107\": {\"In\": 1.0}, \"108\": {\"O\": 1.0}, \"109\": {\"O\": 1.0}, \"110\": {\"O\": 1.0}, \"111\": {\"O\": 1.0}, \"112\": {\"O\": 1.0}, \"113\": {\"O\": 1.0}, \"114\": {\"O\": 1.0}, \"115\": {\"O\": 1.0}, \"116\": {\"O\": 1.0}, \"117\": {\"O\": 1.0}, \"118\": {\"O\": 1.0}, \"119\": {\"O\": 1.0}}" energy=-705.639404296875 free_energy=-705.639404296875 stress="0.007719974499195814 -1.0614806342346128e-05 -8.209198858821765e-05 -1.0614806342346128e-05 0.00790874008089304 8.10672136140056e-05 -8.209198858821765e-05 8.10672136140056e-05 1.9199454982299358e-05" pbc="T T T"
O        5.56112551       5.29730098      12.44442493  F        0       0.00682880      -0.00223525       0.00676215
O        7.19929797       2.16742567      12.44442488  F        1      -0.00475315      -0.00338194       0.00832272
O        9.09076378       5.15106294      12.44442506  F        2      -0.00138631       0.00079696       0.00623357
O        3.56236441       2.32744963      12.81467041  F        3       0.00460178      -0.00791155       0.00098377
O       10.77064547       1.92137361      12.81467059  F        4      -0.00251794       0.00101879      -0.00958723
O        7.51817736       8.36696557      12.81467060  F        5       0.00552329      -0.00288743      -0.00056010
O       -3.86713652       8.43746206      12.95843886  F        6       0.01318139      -0.00121127       0.01882911
O        1.91024068       5.04801920      12.95843918  F        7       0.00196078       0.01235362      -0.00458914
O        1.95689587      11.74609578      12.95843921  F        8      -0.02202277      -0.00251114       0.00340110
O       -5.62751792      11.43742505      12.90107995  F        9       0.01240858       0.01381843       0.01303160
O        0.19238766       2.02350350      12.90107932  F       10      -0.01024484      -0.00851871       0.00208873
O        5.43512990      11.77064967      12.90107909  F       11       0.01619495      -0.01594183      -0.00273925
In       2.02827288       0.93415595      13.34696164  F       12       0.00248181       0.01700787      -0.01528700
In       5.45297263       1.43044201      13.46548669  F       13       0.01196969      -0.00279127      -0.03904785
In       5.79604177       7.17815473      13.46548635  F       14      -0.03548195       0.00993196      -0.02052271
In       7.07859496      10.39217548      13.34696140  F       15      -0.02215260      -0.01713508      -0.01904517
In      10.60217256       4.00719198      13.46548647  F       16       0.02350961       0.00848133      -0.01639141
In      12.74431985       1.28945811      13.34696112  F       17      -0.01125040       0.01310943       0.01486029
In      -3.76992867      10.45841758      13.58493911  F       18      -0.00444216      -0.00660466      -0.00072715
In       0.11143913       4.12172609      13.58493797  F       19       0.00010289       0.00522157       0.06927133
In       7.28372934       4.20526284      13.28077194  F       20       0.00676867      -0.00289718      -0.02723106
In       3.65848992      10.65143468      13.58493907  F       21      -0.00657242       0.00202641       0.07390484
In      -2.12514371       7.57248039      13.82744761  F       22      -0.00475118      -0.01108492      -0.00118953
In       1.78834112       6.98912009      13.82744861  F       23      -0.00523780      -0.01152754       0.07091599
In       3.89762555       4.37439996      13.55369945  F       24      -0.00782144       0.01555108      -0.00682556
In       0.33680320      10.66997741      13.82744770  F       25       0.03215438       0.00126265      -0.00266971
In       8.83030441       1.18824328      13.55369950  F       26       0.00868931       0.00444464      -0.01190457
In       9.12325787       7.05314622      13.55369981  F       27       0.00147630      -0.01616146      -0.05051180
O        1.94314284       9.09920259      13.79983277  F       28      -0.01430042       0.03330290      -0.05115330
O       -0.37515974       6.38337672      13.79983300  F       29      -0.00427192       0.00260314      -0.04605389
O       -1.56798334       9.74899853      13.79983313  F       30      -0.02830905      -0.00080188      -0.01314723
O       -1.90665604       3.49451490      14.07374983  F       31      -0.01778976      -0.00347137      -0.04088099
O       -3.30406258      12.51974383      14.07375025  F       32       0.00698945       0.00512370       0.03333344
O        5.21071859       9.21731872      14.07374980  F       33       0.03055513      -0.01160488      -0.02126612
O        6.95268262       0.11029125      14.35625235  F       34      -0.01327777       0.01402344       0.00598133
O        3.90290295       6.53944318      14.35625252  F       35       0.03155842      -0.02124369      -0.02147284
O       10.99560128       5.96605484      14.35625280  F       36      -0.02385899       0.01920483       0.00060827
O        5.60077915       3.29585311      14.56420047  F       37      -0.00190823       0.00883494       0.03963226
O        8.91277589       3.20249084      14.56420075  F       38      -0.02562633      -0.01475388       0.02219206
O        7.33763173       6.11744518      14.56420087  F       39       0.02934530       0.00122496       0.04907119
O        1.68336921       1.02548187      15.48953070  F       40       0.03943573      -0.05818791       0.06593289
O       12.83768043       0.94510034      15.48953027  F       41       0.00977191       0.00433318       0.01563974
O        7.33013789      10.64520717      15.48953039  F       42       0.06171428      -0.02112364       0.07967277
O       -3.87048772      10.25806959      15.75644575  F       43      -0.14107051       0.08240122      -0.04105955
O        0.33522381       4.13481358      15.75644581  F       44       0.03241280      -0.11015362      -0.09580656
O        3.53526358      10.83869431      15.75644572  F       45       0.08420436       0.07449594      -0.11560809
O        9.24484356       0.74344663      15.94429150  F       46      -0.06805688       0.01735157       0.03358026
O        3.30515102       4.23779662      15.94429168  F       47       0.04717776      -0.04061839       0.02702713
O        9.30119327       7.63454631      15.94429132  F       48      -0.00519033       0.08537203       0.13625987
O       -1.89390768       7.68105065      15.98554452  F       49      -0.01255363       0.11731029       0.11739329
O        1.57869822       7.13509120      15.98554413  F       50       0.03057569       0.01609274      -0.05102822
O        0.31520971      10.41543579      15.98554439  F       51      -0.22640057       0.03086370       0.07111861
In      -1.57901381       3.03754313      16.29163881  F       52       0.00342773       0.09276550      -0.01852887
In      -3.86363272      12.46448245      16.29163869  F       53       0.06981795       0.00724574      -0.16399479
In      -0.30746998       6.17668715      16.39885574  F       54       0.12396494       0.00396386       0.26394016
In      -1.78082649       9.79372205      16.39885556  F       55      -0.09780842      -0.15966076      -0.00373697
In       2.08829635       9.26116873      16.39885555  F       56      -0.00568435       0.01111637       0.15067151
In       5.44264624       9.72955081      16.29163837  F       57      -0.16460781       0.00691678      -0.04269975
In      14.56745775       0.00000023      16.52452729  F       58      -0.16097425       0.10470894      -0.12141239
In       7.28372884       0.00000046      16.52452727  F       59       0.10622664      -0.00812220      -0.18942823
In       3.64186448       6.30789445      16.52452688  F       60      -0.13385113       0.10265557       0.00928798
In      -3.64186467       6.30789479      16.52452729  F       61       0.11826293      -0.11109618      -0.10084888
In       9.06455585       2.82206686      16.65019864  F       62       0.05996994      -0.01149022      -0.09182861
In       1.84108280       2.88623741      16.75741682  F       63      -0.10654227       0.13326523      -0.01876263
In       5.19543306       3.35462016      16.65019954  F       64      -0.01120955       0.04547869      -0.14351736
In      11.14736129       0.15130547      16.75741597  F       65      -0.03878419      -0.07118906      -0.05698989
In       7.59119877       6.43910216      16.65019924  F       66      -0.00311704      -0.08024523      -0.04767458
In       8.86274257       9.57824538      16.75741545  F       67       0.06609144      -0.02568619      -0.20231646
O        9.17763668       4.93473784      17.06350958  F       68      -0.05942100      -0.00899684       0.08292255
O        6.96851909       2.20035367      17.06350993  F       69       0.00173239      -0.03273547       0.14118922
O        5.70503103       5.48069763      17.06350990  F       70      -0.04369655      -0.08364981       0.13973978
O       -2.01746347       4.98124236      17.10476289  F       71      -0.26638901      -0.07816628      -0.13147387
O       -1.96111486      11.87234229      17.10476307  F       72       0.19684543       0.33973211      -0.12687337
O        3.97857827       8.37799246      17.10476382  F       73       0.24345401      -0.16055934      -0.11218032
O        6.94850543       8.48097521      17.29260816  F       74       0.23482348       0.04103689       0.18360138
O       11.15421650       2.35771879      17.29260829  F       75      -0.06909662      -0.02773175       0.02792207
O        3.74846506       1.77709453      17.29260778  F       76       0.02327201      -0.05604541       0.03403646
O       -0.04640858       1.97058198      17.55952389  F       77       0.03608926      -0.03780940       0.05922733
O       -5.55395094      11.67068958      17.55952349  F       78       0.02365252      -0.07656785       0.19068898
O        5.60035973      11.59030666      17.55952404  F       79       0.02280901      -0.02467047       0.12169886
O       -1.97306988       9.57675889      18.49640534  T       80      -0.00505276      -0.00975549       0.00133214
O        1.77024083       9.39265074      18.46368867  T       81       0.00120011       0.00054621      -0.01078683
O       -0.07374510       6.40326660      18.47990578  T       82      -0.01490948      -0.00007373       0.01099864
O        3.35193103       6.08466997      18.70443055  T       83      -0.00344416       0.00281775       0.00596136
O       -3.72398798       6.62409798      18.69677220  T       84       0.02042004       0.01227278       0.01612755
O        0.34865343      12.49944147      18.70851445  T       85      -0.00472659      -0.02364625      -0.00374985
O        9.21393393       9.19488237      19.04594890  T       86       0.00504516      -0.00260651       0.00347850
O        2.07047540       3.38866836      18.98799303  T       87      -0.01686931       0.00516599      -0.00530672
O       10.57947413       0.09111212      18.97431696  T       88      -0.00183538      -0.00267327      -0.00294077
O        8.84606980       2.85946246      19.27162651  T       89      -0.00106931       0.00687964      -0.00895053
O        5.34014079       3.49945590      19.27571416  T       90      -0.00472345       0.01046607       0.00180316
O        7.65572674       6.24386507      19.24646184  T       91      -0.00174648      -0.02086332       0.00392759
In      -1.80067519       5.54770824      19.47684214  T       92       0.01261356       0.00321353       0.00451703
In      -1.46852645      11.41660244      19.42469511  T       93       0.01123664      -0.00059265      -0.01386740
In       6.94310196       1.94182706      19.22614246  T       94      -0.02281226      -0.00319473      -0.00291784
In       3.34269983       8.27789195      19.46938164  T       95       0.00397655      -0.00838938       0.00434748
In       5.45766786       5.62929958      19.22253867  T       96       0.00808649      -0.01353633      -0.00293350
In       9.40241939       5.02518914      19.22638637  T       97      -0.00458248       0.00304897      -0.01329757
In      -0.00517694       8.35734521      21.06042608  T       98       0.00035534      -0.01230495       0.00616076
In       3.62061209       1.97170860      19.45332470  T       99       0.01495060       0.00444511       0.00570893
In      11.06381398       2.15159456      19.46165085  T      100      -0.00669212       0.01294198      -0.00153594
In       7.15607286       8.46800558      19.46411846  T      101       0.01210656       0.00117934      -0.01209131
In      -5.61898120      11.36201103      19.69564677  T      102       0.00647373      -0.00744198       0.00450064
In      -3.35553395       8.51478781      19.60128329  T      103       0.01049946      -0.00226806      -0.00322363
In       0.19845933       2.24179574      19.70243975  T      104      -0.01871024       0.00473559       0.00365676
In       1.45809750       5.47331161      19.59344292  T      105       0.00097953      -0.00730313      -0.01650225
In       1.82809426      11.14993425      19.59685586  T      106       0.00671737       0.00033508      -0.01273157
In       5.19976332      11.68064669      19.70551632  T      107      -0.00277351      -0.00744668       0.01138501
O        1.84173840       0.82704298      20.15885467  T      108       0.00211139      -0.00079176      -0.00265512
O        7.02319218      10.56169483      20.16098065  T      109      -0.00320071      -0.00448378      -0.01325956
O       12.91627684       1.16667542      20.14007223  T      110      -0.00147626       0.00551665      -0.00250304
O        5.33959024       7.57496104      20.06721111  T      111      -0.01355579       0.01102042       0.00295931
O       11.16754934       4.17929337      20.06476155  T      112      -0.00809808       0.00060494       0.00138503
O        5.30583157       0.80655888      20.05233857  T      113      -0.00609677      -0.00118201      -0.00601295
O       -0.22156279       4.23809733      20.29399776  T      114       0.00347688      -0.00710475      -0.00627977
O       -3.59677029      10.73514005      20.53454663  T      115       0.00719306      -0.01005822       0.01215613
O        3.69597374      10.30423106      20.35635571  T      116       0.00181103       0.00011656      -0.01478726
O       -1.91373204       7.45247843      20.71437995  T      117      -0.01133996      -0.00706170      -0.00447929
O        0.05377575      10.48284703      20.68318185  T      118      -0.01210472       0.00610143      -0.02344275
O        1.78938526       7.31164362      20.69308721  T      119       0.00322330      -0.00135933       0.00680596
O       -0.12066101       8.67266193      23.19001220  T        0      -0.00748558       0.02389932      -0.01312640
O       -0.11680216       6.43030281      22.97879237  T        0       0.00290351      -0.01095939      -0.01457536
C       -0.30820739       7.37668942      25.20123877  T        0       0.00458638       0.00607273       0.00923768
C       -0.17804164       7.46430751      23.67670898  T        0       0.01507126      -0.00580270       0.01648700
H        0.69045789       7.39049894      25.65663504  T        0      -0.00619816       0.00084043      -0.00922056
H       -0.85657701       8.23520487      25.60106594  T        0      -0.00185369      -0.00351021      -0.00860807
H       -0.79048204       6.43739000      25.48413277  T        0       0.01518570      -0.00231519      -0.00803764
H       -3.49349125      10.92148167      21.48677804  T        0       0.01153216      -0.00276199       0.01248562
