128
Lattice="14.567458257780915 0.0 0.0 -7.283729128890462 12.615788919807672 0.0 0.0 0.0 33.04905420593702" Properties=species:S:1:pos:R:3:move_mask:L:1:spacegroup_kinds:I:1:forces:R:3 spacegroup="P 1" unit_cell=conventional occupancy="_JSON {\"0\": {\"O\": 1.0}, \"1\": {\"O\": 1.0}, \"2\": {\"O\": 1.0}, \"3\": {\"O\": 1.0}, \"4\": {\"O\": 1.0}, \"5\": {\"O\": 1.0}, \"6\": {\"O\": 1.0}, \"7\": {\"O\": 1.0}, \"8\": {\"O\": 1.0}, \"9\": {\"O\": 1.0}, \"10\": {\"O\": 1.0}, \"11\": {\"O\": 1.0}, \"12\": {\"In\": 1.0}, \"13\": {\"In\": 1.0}, \"14\": {\"In\": 1.0}, \"15\": {\"In\": 1.0}, \"16\": {\"In\": 1.0}, \"17\": {\"In\": 1.0}, \"18\": {\"In\": 1.0}, \"19\": {\"In\": 1.0}, \"20\": {\"In\": 1.0}, \"21\": {\"In\": 1.0}, \"22\": {\"In\": 1.0}, \"23\": {\"In\": 1.0}, \"24\": {\"In\": 1.0}, \"25\": {\"In\": 1.0}, \"26\": {\"In\": 1.0}, \"27\": {\"In\": 1.0}, \"28\": {\"O\": 1.0}, \"29\": {\"O\": 1.0}, \"30\": {\"O\": 1.0}, \"31\": {\"O\": 1.0}, \"32\": {\"O\": 1.0}, \"33\": {\"O\": 1.0}, \"34\": {\"O\": 1.0}, \"35\": {\"O\": 1.0}, \"36\": {\"O\": 1.0}, \"37\": {\"O\": 1.0}, \"38\": {\"O\": 1.0}, \"39\": {\"O\": 1.0}, \"40\": {\"O\": 1.0}, \"41\": {\"O\": 1.0}, \"42\": {\"O\": 1.0}, \"43\": {\"O\": 1.0}, \"44\": {\"O\": 1.0}, \"45\": {\"O\": 1.0}, \"46\": {\"O\": 1.0}, \"47\": {\"O\": 1.0}, \"48\": {\"O\": 1.0}, \"49\": {\"O\": 1.0}, \"50\": {\"O\": 1.0}, \"51\": {\"O\": 1.0}, \"52\": {\"In\": 1.0}, \"53\": {\"In\": 1.0}, \"54\": {\"In\": 1.0}, \"55\": {\"In\": 1.0}, \"56\": {\"In\": 1.0}, \"57\": {\"In\": 1.0}, \"58\": {\"In\": 1.0}, \"59\": {\"In\": 1.0}, \"60\": {\"In\": 1.0}, \"61\": {\"In\": 1.0}, \"62\": {\"In\": 1.0}, \"63\": {\"In\": 1.0}, \"64\": {\"In\": 1.0}, \"65\": {\"In\": 1.0}, \"66\": {\"In\": 1.0}, \"67\": {\"In\": 1.0}, \"68\": {\"O\": 1.0}, \"69\": {\"O\": 1.0}, \"70\": {\"O\": 1.0}, \"71\": {\"O\": 1.0}, \"72\": {\"O\": 1.0}, \"73\": {\"O\": 1.0}, \"74\": {\"O\": 1.0}, \"75\": {\"O\": 1.0}, \"76\": {\"O\": 1.0}, \"77\": {\"O\": 1.0}, \"78\": {\"O\": 1.0}, \"79\": {\"O\": 1.0}, \"80\": {\"O\": 1.0}, \"81\": {\"O\": 1.0}, \"82\": {\"O\": 1.0}, \"83\": {\"O\": 1.0}, \"84\": {\"O\": 1.0}, \"85\": {\"O\": 1.0}, \"86\": {\"O\": 1.0}, \"87\": {\"O\": 1.0}, \"88\": {\"O\": 1.0}, \"89\": {\"O\": 1.0}, \"90\": {\"O\": 1.0}, \"91\": {\"O\": 1.0}, \"92\": {\"In\": 1.0}, \"93\": {\"In\": 1.0}, \"94\": {\"In\": 1.0}, \"95\": {\"In\": 1.0}, \"96\": {\"In\": 1.0}, \"97\": {\"In\": 1.0}, \"98\": {\"In\": 1.0}, \"99\": {\"In\": 1.0}, \"100\": {\"In\": 1.0}, \"101\": {\"In\": 1.0}, \"102\": {\"In\": 1.0}, \"103\": {\"In\": 1.0}, \"104\": {\"In\": 1.0}, \"105\": {\"In\": 1.0}, \"106\": {\"In\": 1.0}, \"107\": {\"In\": 1.0}, \"108\": {\"O\": 1.0}, \"109\": {\"O\": 1.0}, \"110\": {\"O\": 1.0}, \"111\": {\"O\": 1.0}, \"112\": {\"O\": 1.0}, \"113\": {\"O\": 1.0}, \"114\": {\"O\": 1.0}, \"115\": {\"O\": 1.0}, \"116\": {\"O\": 1.0}, \"117\": {\"O\": 1.0}, \"118\": {\"O\": 1.0}, \"119\": {\"O\": 1.0}}" energy=-707.6323852539062 free_energy=-707.6323852539062 stress="0.007502031046897173 -0.00028542368090711534 1.4280726645665709e-05 -0.00028542368090711534 0.007784761488437653 -2.1325986381270923e-06 1.4280726645665709e-05 -2.1325986381270923e-06 -2.1965131963952444e-05" pbc="T T T"
O        5.56112551       5.29730098      12.44442493  F        0      -0.00977667       0.01477516      -0.00303733
O        7.19929797       2.16742567      12.44442488  F        1      -0.00909159      -0.01179716      -0.00251150
O        9.09076378       5.15106294      12.44442506  F        2       0.00728369       0.01625124      -0.00331688
O        3.56236441       2.32744963      12.81467041  F        3      -0.01083702      -0.02045425      -0.00735211
O       10.77064547       1.92137361      12.81467059  F        4       0.02194908       0.00343317      -0.02177179
O        7.51817736       8.36696557      12.81467060  F        5      -0.00170162       0.00897542      -0.01091158
O       -3.86713652       8.43746206      12.95843886  F        6       0.02500668       0.00955516       0.01845688
O        1.91024068       5.04801920      12.95843918  F        7      -0.00677335       0.02465541       0.01482689
O        1.95689587      11.74609578      12.95843921  F        8      -0.02232568      -0.03454465       0.00287771
O       -5.62751792      11.43742505      12.90107995  F        9       0.02565493       0.01143153       0.00818509
O        0.19238766       2.02350350      12.90107932  F       10      -0.00663548       0.00277247      -0.00256157
O        5.43512990      11.77064967      12.90107909  F       11       0.01342635      -0.02857184      -0.00502473
In       2.02827288       0.93415595      13.34696164  F       12      -0.00449086       0.01955385       0.00784385
In       5.45297263       1.43044201      13.46548669  F       13       0.03326504       0.03804012      -0.01264730
In       5.79604177       7.17815473      13.46548635  F       14       0.00492733      -0.00898264      -0.01659186
In       7.07859496      10.39217548      13.34696140  F       15      -0.01036504      -0.00748276       0.01417165
In      10.60217256       4.00719198      13.46548647  F       16      -0.02115800      -0.01389565       0.00479205
In      12.74431985       1.28945811      13.34696112  F       17      -0.02560403       0.00256725       0.03790098
In      -3.76992867      10.45841758      13.58493911  F       18      -0.01245981      -0.00332210      -0.04844500
In       0.11143913       4.12172609      13.58493797  F       19      -0.01544407      -0.01339530       0.01013809
In       7.28372934       4.20526284      13.28077194  F       20       0.01359309      -0.02562466       0.02462430
In       3.65848992      10.65143468      13.58493907  F       21       0.00302831       0.02204139       0.03156865
In      -2.12514371       7.57248039      13.82744761  F       22      -0.04395148      -0.01876324      -0.04544015
In       1.78834112       6.98912009      13.82744861  F       23       0.01705651      -0.02925581      -0.04984826
In       3.89762555       4.37439996      13.55369945  F       24       0.03153684      -0.02100806       0.00918289
In       0.33680320      10.66997741      13.82744770  F       25       0.04568256       0.05035631      -0.02484757
In       8.83030441       1.18824328      13.55369950  F       26       0.01666085       0.02814524       0.05088827
In       9.12325787       7.05314622      13.55369981  F       27      -0.01659102      -0.02740256       0.00126006
O        1.94314284       9.09920259      13.79983277  F       28      -0.01530590       0.00056231       0.01919645
O       -0.37515974       6.38337672      13.79983300  F       29       0.01660904       0.01163960       0.01671356
O       -1.56798334       9.74899853      13.79983313  F       30      -0.02219135      -0.00356703       0.04123551
O       -1.90665604       3.49451490      14.07374983  F       31       0.01710792       0.01876765      -0.02915779
O       -3.30406258      12.51974383      14.07375025  F       32       0.01531067      -0.02402875       0.05200316
O        5.21071859       9.21731872      14.07374980  F       33       0.00114855      -0.01828095      -0.00699762
O        6.95268262       0.11029125      14.35625235  F       34      -0.05425289      -0.05416675       0.02590032
O        3.90290295       6.53944318      14.35625252  F       35      -0.01155923       0.01351333       0.01791462
O       10.99560128       5.96605484      14.35625280  F       36       0.02274001       0.02742797      -0.00423326
O        5.60077915       3.29585311      14.56420047  F       37      -0.03858041       0.02844150      -0.04296708
O        8.91277589       3.20249084      14.56420075  F       38      -0.01034780       0.01171766      -0.07583785
O        7.33763173       6.11744518      14.56420087  F       39       0.01143135       0.01815157      -0.01197380
O        1.68336921       1.02548187      15.48953070  F       40       0.01278134      -0.01576970      -0.00124313
O       12.83768043       0.94510034      15.48953027  F       41       0.05139443      -0.01576886      -0.05048738
O        7.33013789      10.64520717      15.48953039  F       42       0.03302933      -0.02929744      -0.01140189
O       -3.87048772      10.25806959      15.75644575  F       43       0.10313978       0.00148636       0.05026697
O        0.33522381       4.13481358      15.75644581  F       44      -0.00250316       0.03358582       0.00410146
O        3.53526358      10.83869431      15.75644572  F       45      -0.03264776      -0.09922047      -0.03064864
O        9.24484356       0.74344663      15.94429150  F       46      -0.06367196      -0.09560415      -0.04753065
O        3.30515102       4.23779662      15.94429168  F       47      -0.00336301       0.01155782       0.00401802
O        9.30119327       7.63454631      15.94429132  F       48       0.02308902       0.06002998      -0.01235722
O       -1.89390768       7.68105065      15.98554452  F       49       0.03226651       0.08010164       0.09600567
O        1.57869822       7.13509120      15.98554413  F       50      -0.01304999       0.11245888       0.09456445
O        0.31520971      10.41543579      15.98554439  F       51      -0.07913123      -0.06144661       0.00448954
In      -1.57901381       3.03754313      16.29163881  F       52      -0.13228226      -0.08532789       0.02092892
In      -3.86363272      12.46448245      16.29163869  F       53      -0.15756240       0.13258955      -0.07622191
In      -0.30746998       6.17668715      16.39885574  F       54      -0.04069185      -0.12096648      -0.21587175
In      -1.78082649       9.79372205      16.39885556  F       55       0.05944113      -0.12886192      -0.30759084
In       2.08829635       9.26116873      16.39885555  F       56      -0.01842372       0.16155225       0.22898552
In       5.44264624       9.72955081      16.29163837  F       57       0.02683470       0.08907225       0.00748056
In      14.56745775       0.00000023      16.52452729  F       58      -0.07112198      -0.00287971      -0.01595421
In       7.28372884       0.00000046      16.52452727  F       59       0.25320074       0.28945500       0.13553436
In       3.64186448       6.30789445      16.52452688  F       60       0.06208703      -0.07829572       0.02063900
In      -3.64186467       6.30789479      16.52452729  F       61      -0.11014711      -0.08550318      -0.00926323
In       9.06455585       2.82206686      16.65019864  F       62      -0.09854762      -0.05822227       0.25767437
In       1.84108280       2.88623741      16.75741682  F       63      -0.01420048      -0.01238008      -0.06894545
In       5.19543306       3.35462016      16.65019954  F       64       0.24695656      -0.14568886       0.10997497
In      11.14736129       0.15130547      16.75741597  F       65       0.00269831       0.06988420      -0.14968894
In       7.59119877       6.43910216      16.65019924  F       66       0.04832084      -0.09627676      -0.00878537
In       8.86274257       9.57824538      16.75741545  F       67      -0.04299039      -0.02359384      -0.00782982
O        9.17763668       4.93473784      17.06350958  F       68       0.04710023       0.38318378      -0.21533273
O        6.96851909       2.20035367      17.06350993  F       69      -0.13237195      -0.29554728       0.36831403
O        5.70503103       5.48069763      17.06350990  F       70      -0.04059306       0.01696963       0.03237183
O       -2.01746347       4.98124236      17.10476289  F       71       0.04959753       0.04772800       0.07901566
O       -1.96111486      11.87234229      17.10476307  F       72      -0.16172630      -0.09930360      -0.05557598
O        3.97857827       8.37799246      17.10476382  F       73      -0.22482392       0.07468008       0.14821447
O        6.94850543       8.48097521      17.29260816  F       74       0.01165241      -0.00768407       0.01547297
O       11.15421650       2.35771879      17.29260829  F       75       0.32024443       0.10464337      -0.24145269
O        3.74846506       1.77709453      17.29260778  F       76      -0.08058043       0.00093105      -0.11813907
O       -0.04640858       1.97058198      17.55952389  F       77       0.03735042       0.03280807       0.01822172
O       -5.55395094      11.67068958      17.55952349  F       78       0.07514426      -0.02607426      -0.01791647
O        5.60035973      11.59030666      17.55952404  F       79       0.17277279      -0.08418636      -0.10581660
O       -1.59529820       9.43591250      18.49341349  T       80       0.00444346      -0.00345373       0.00235859
O        1.64591115       9.41329435      18.53553336  T       81       0.00184083      -0.00763476      -0.00669470
O       -0.04252310       6.47443646      18.47261670  T       82       0.01049745       0.00196836       0.02531856
O        3.38097074       6.08904632      18.69727454  T       83      -0.00078750       0.00261250      -0.01075448
O       -3.69117377       6.64711359      18.69782572  T       84       0.00086355      -0.00129300       0.00218692
O        0.29289359      12.41037244      18.71218303  T       85      -0.00869617      -0.00196487       0.00959804
O        9.20650832       9.11593422      18.97081242  T       86      -0.01958854      -0.00600189       0.00581118
O        2.06781220       3.41181039      18.96937955  T       87       0.00642055      -0.00552964       0.00192548
O       10.64390679       0.10516261      18.90794525  T       88      -0.01855880      -0.00947133       0.01330752
O        8.90852742       2.87710734      19.05734856  T       89       0.00249034      -0.01075660       0.00900137
O        5.37071336       3.50995429      19.26851850  T       90      -0.00688289      -0.00426710      -0.00824517
O        7.66727669       6.23147621      19.26084195  T       91       0.00333369      -0.00002748       0.00460815
In      -1.84429248       5.53827227      19.50116024  T       92       0.00268584       0.00915003      -0.00942736
In      -1.66011038      11.48458386      19.35119569  T       93      -0.00749170      -0.02410664      -0.00305530
In       7.01122369       1.92710932      19.33525335  T       94      -0.00104341       0.00832972      -0.01392492
In       3.39862264       8.27234900      19.48163758  T       95      -0.00974242       0.00083730      -0.00270317
In       5.50390463       5.61834399      19.22613007  T       96      -0.01498426       0.01192927      -0.00266358
In       9.41273026       5.02721040      19.20776982  T       97       0.00266133       0.00944728       0.00348765
In       0.01442522       8.34619223      19.66196627  T       98      -0.00228823      -0.00050512       0.00773790
In       3.62259600       1.99942475      19.45151292  T       99      -0.01533059      -0.00303888       0.00215511
In      11.04038601       2.16185363      19.45109867  T      100       0.00150397      -0.01136697       0.00320137
In       7.18239776       8.48948648      19.46331819  T      101      -0.00237309      -0.00000717      -0.00205229
In      -5.46617187      11.33711609      19.69946192  T      102      -0.00130309      -0.01039657      -0.00341429
In      -3.31969409       8.59468321      19.59232946  T      103      -0.00112353       0.00362585      -0.01057459
In       0.19905219       2.22595247      19.70168150  T      104      -0.01224243       0.00705222       0.01100871
In       1.50761139       5.43110396      19.59763129  T      105      -0.00707275       0.00128481       0.01035060
In       1.90282589      11.33562357      19.68747937  T      106      -0.01693089      -0.00436599       0.00742874
In       5.27781319      11.69700802      19.69275563  T      107      -0.00052535       0.00020464      -0.00536112
O        1.84370186       0.85556947      20.13351223  T      108       0.00635213      -0.00108843       0.00482941
O        7.10648789      10.59136285      20.14607247  T      109      -0.00731132      -0.01300038       0.00032055
O       12.90701476       1.19207329      20.14992441  T      110      -0.00136582      -0.00576580       0.00528699
O        5.37529485       7.56989186      20.07573143  T      111      -0.00214991      -0.01446685      -0.00430048
O       11.14278253       4.17724947      20.12308260  T      112      -0.01137658      -0.00447753       0.00607222
O        5.26565463       0.84863584      20.00732055  T      113      -0.00135049       0.01882601      -0.01272932
O       -0.22572761       4.25854151      20.24987637  T      114      -0.00405296      -0.00097144      -0.01927859
O       -3.48519358      10.68325694      20.23132726  T      115      -0.00140770      -0.00404844       0.00021929
O        3.74323314      10.29825812      20.21211852  T      116      -0.00938380       0.00043620       0.01256555
O       -1.77616434       7.47301130      20.58706996  T      117       0.00730506      -0.00405202       0.00015199
O       -0.00366252      10.39212967      20.68325087  T      118      -0.00081185       0.01371310       0.01679850
O        1.72363346       7.34185746      20.59004972  T      119      -0.00735012      -0.00825214       0.00327086
O        9.14700426       0.03666291      21.51784285  T        0      -0.01811251       0.01468569       0.00030464
O        7.63312512       1.73917212      21.50930740  T        0       0.01678784      -0.01583266       0.00243300
C        8.05060979       0.57603516      23.54539006  T        0      -0.00559561       0.01291977       0.01326358
C        8.28472311       0.80715743      22.06646961  T        0      -0.00051582      -0.00649245       0.02415442
H        7.56656229      -0.40344169      23.68304719  T        0       0.02158052       0.01429041       0.00210896
H        9.01175024       0.53060518      24.07434669  T        0      -0.00715786       0.00249062      -0.02120156
H        7.40739274       1.35639600      23.96226636  T        0       0.00866325       0.00699653       0.01856829
H        7.20376400      -2.23194826      21.65367959  T        0       0.00483119      -0.01121441      -0.00588000
