128
Lattice="14.567458257780915 0.0 0.0 -7.283729128890462 12.615788919807672 0.0 0.0 0.0 33.04905420593702" Properties=species:S:1:pos:R:3:move_mask:L:1:spacegroup_kinds:I:1:forces:R:3 spacegroup="P 1" unit_cell=conventional occupancy="_JSON {\"0\": {\"O\": 1.0}, \"1\": {\"O\": 1.0}, \"2\": {\"O\": 1.0}, \"3\": {\"O\": 1.0}, \"4\": {\"O\": 1.0}, \"5\": {\"O\": 1.0}, \"6\": {\"O\": 1.0}, \"7\": {\"O\": 1.0}, \"8\": {\"O\": 1.0}, \"9\": {\"O\": 1.0}, \"10\": {\"O\": 1.0}, \"11\": {\"O\": 1.0}, \"12\": {\"In\": 1.0}, \"13\": {\"In\": 1.0}, \"14\": {\"In\": 1.0}, \"15\": {\"In\": 1.0}, \"16\": {\"In\": 1.0}, \"17\": {\"In\": 1.0}, \"18\": {\"In\": 1.0}, \"19\": {\"In\": 1.0}, \"20\": {\"In\": 1.0}, \"21\": {\"In\": 1.0}, \"22\": {\"In\": 1.0}, \"23\": {\"In\": 1.0}, \"24\": {\"In\": 1.0}, \"25\": {\"In\": 1.0}, \"26\": {\"In\": 1.0}, \"27\": {\"In\": 1.0}, \"28\": {\"O\": 1.0}, \"29\": {\"O\": 1.0}, \"30\": {\"O\": 1.0}, \"31\": {\"O\": 1.0}, \"32\": {\"O\": 1.0}, \"33\": {\"O\": 1.0}, \"34\": {\"O\": 1.0}, \"35\": {\"O\": 1.0}, \"36\": {\"O\": 1.0}, \"37\": {\"O\": 1.0}, \"38\": {\"O\": 1.0}, \"39\": {\"O\": 1.0}, \"40\": {\"O\": 1.0}, \"41\": {\"O\": 1.0}, \"42\": {\"O\": 1.0}, \"43\": {\"O\": 1.0}, \"44\": {\"O\": 1.0}, \"45\": {\"O\": 1.0}, \"46\": {\"O\": 1.0}, \"47\": {\"O\": 1.0}, \"48\": {\"O\": 1.0}, \"49\": {\"O\": 1.0}, \"50\": {\"O\": 1.0}, \"51\": {\"O\": 1.0}, \"52\": {\"In\": 1.0}, \"53\": {\"In\": 1.0}, \"54\": {\"In\": 1.0}, \"55\": {\"In\": 1.0}, \"56\": {\"In\": 1.0}, \"57\": {\"In\": 1.0}, \"58\": {\"In\": 1.0}, \"59\": {\"In\": 1.0}, \"60\": {\"In\": 1.0}, \"61\": {\"In\": 1.0}, \"62\": {\"In\": 1.0}, \"63\": {\"In\": 1.0}, \"64\": {\"In\": 1.0}, \"65\": {\"In\": 1.0}, \"66\": {\"In\": 1.0}, \"67\": {\"In\": 1.0}, \"68\": {\"O\": 1.0}, \"69\": {\"O\": 1.0}, \"70\": {\"O\": 1.0}, \"71\": {\"O\": 1.0}, \"72\": {\"O\": 1.0}, \"73\": {\"O\": 1.0}, \"74\": {\"O\": 1.0}, \"75\": {\"O\": 1.0}, \"76\": {\"O\": 1.0}, \"77\": {\"O\": 1.0}, \"78\": {\"O\": 1.0}, \"79\": {\"O\": 1.0}, \"80\": {\"O\": 1.0}, \"81\": {\"O\": 1.0}, \"82\": {\"O\": 1.0}, \"83\": {\"O\": 1.0}, \"84\": {\"O\": 1.0}, \"85\": {\"O\": 1.0}, \"86\": {\"O\": 1.0}, \"87\": {\"O\": 1.0}, \"88\": {\"O\": 1.0}, \"89\": {\"O\": 1.0}, \"90\": {\"O\": 1.0}, \"91\": {\"O\": 1.0}, \"92\": {\"In\": 1.0}, \"93\": {\"In\": 1.0}, \"94\": {\"In\": 1.0}, \"95\": {\"In\": 1.0}, \"96\": {\"In\": 1.0}, \"97\": {\"In\": 1.0}, \"98\": {\"In\": 1.0}, \"99\": {\"In\": 1.0}, \"100\": {\"In\": 1.0}, \"101\": {\"In\": 1.0}, \"102\": {\"In\": 1.0}, \"103\": {\"In\": 1.0}, \"104\": {\"In\": 1.0}, \"105\": {\"In\": 1.0}, \"106\": {\"In\": 1.0}, \"107\": {\"In\": 1.0}, \"108\": {\"O\": 1.0}, \"109\": {\"O\": 1.0}, \"110\": {\"O\": 1.0}, \"111\": {\"O\": 1.0}, \"112\": {\"O\": 1.0}, \"113\": {\"O\": 1.0}, \"114\": {\"O\": 1.0}, \"115\": {\"O\": 1.0}, \"116\": {\"O\": 1.0}, \"117\": {\"O\": 1.0}, \"118\": {\"O\": 1.0}, \"119\": {\"O\": 1.0}}" energy=-706.0704345703125 free_energy=-706.0704345703125 stress="0.007182589266449213 0.0002567926421761513 -2.8519443731056526e-05 0.0002567926421761513 0.007100421469658613 -4.4900691136717796e-05 -2.8519443731056526e-05 -4.4900691136717796e-05 7.391686267510522e-06" pbc="T T T"
O        5.56112551       5.29730098      12.44442493  F        0      -0.00461851       0.00967786       0.00719464
O        7.19929797       2.16742567      12.44442488  F        1       0.00791644      -0.00193396       0.00769889
O        9.09076378       5.15106294      12.44442506  F        2       0.01213378       0.00011698       0.01268673
O        3.56236441       2.32744963      12.81467041  F        3       0.00513396       0.00573700      -0.01575047
O       10.77064547       1.92137361      12.81467059  F        4       0.00464328       0.00894159       0.00029624
O        7.51817736       8.36696557      12.81467060  F        5      -0.00660306      -0.00802350      -0.01127768
O       -3.86713652       8.43746206      12.95843886  F        6       0.02546556      -0.02657466       0.01258630
O        1.91024068       5.04801920      12.95843918  F        7      -0.01687917       0.03019226       0.02607191
O        1.95689587      11.74609578      12.95843921  F        8      -0.01155974      -0.01741178       0.01195246
O       -5.62751792      11.43742505      12.90107995  F        9       0.01382900       0.00938792      -0.01677108
O        0.19238766       2.02350350      12.90107932  F       10      -0.04510332       0.02667906      -0.00090814
O        5.43512990      11.77064967      12.90107909  F       11      -0.00879685      -0.01334516       0.00196576
In       2.02827288       0.93415595      13.34696164  F       12       0.00966430      -0.00458470       0.08141933
In       5.45297263       1.43044201      13.46548669  F       13      -0.01943280      -0.01155627      -0.00641847
In       5.79604177       7.17815473      13.46548635  F       14       0.00388572       0.00451021      -0.03130099
In       7.07859496      10.39217548      13.34696140  F       15       0.02034097       0.00285823       0.06558432
In      10.60217256       4.00719198      13.46548647  F       16      -0.01813883      -0.00350787      -0.05375634
In      12.74431985       1.28945811      13.34696112  F       17      -0.00060874      -0.01924903       0.00107977
In      -3.76992867      10.45841758      13.58493911  F       18      -0.01846690       0.01842773       0.05558458
In       0.11143913       4.12172609      13.58493797  F       19       0.02263703      -0.02450214      -0.03409927
In       7.28372934       4.20526284      13.28077194  F       20      -0.01963439      -0.00046927      -0.00989497
In       3.65848992      10.65143468      13.58493907  F       21       0.01799553       0.00323376      -0.00908054
In      -2.12514371       7.57248039      13.82744761  F       22      -0.03917933       0.03557767      -0.06386946
In       1.78834112       6.98912009      13.82744861  F       23       0.02573444      -0.03329320      -0.08085905
In       3.89762555       4.37439996      13.55369945  F       24       0.01891211      -0.02607626      -0.01340054
In       0.33680320      10.66997741      13.82744770  F       25       0.01293244       0.02620025      -0.00417513
In       8.83030441       1.18824328      13.55369950  F       26      -0.00716745       0.00327521      -0.01045758
In       9.12325787       7.05314622      13.55369981  F       27      -0.02857761       0.01272672      -0.01685443
O        1.94314284       9.09920259      13.79983277  F       28      -0.00357877      -0.00637132       0.01961130
O       -0.37515974       6.38337672      13.79983300  F       29       0.01619542      -0.00969252       0.04214212
O       -1.56798334       9.74899853      13.79983313  F       30       0.00407052      -0.03473385      -0.00150061
O       -1.90665604       3.49451490      14.07374983  F       31      -0.00911960       0.02377921       0.06532096
O       -3.30406258      12.51974383      14.07375025  F       32       0.02815846      -0.00398576      -0.03754610
O        5.21071859       9.21731872      14.07374980  F       33      -0.02837649      -0.01788470      -0.01894878
O        6.95268262       0.11029125      14.35625235  F       34       0.01134467       0.00246882       0.00891598
O        3.90290295       6.53944318      14.35625252  F       35      -0.02549740       0.01165998       0.02734680
O       10.99560128       5.96605484      14.35625280  F       36       0.02192780      -0.01967603       0.05033195
O        5.60077915       3.29585311      14.56420047  F       37       0.00678766       0.03572108       0.00504065
O        8.91277589       3.20249084      14.56420075  F       38       0.00482011      -0.00718024       0.03420401
O        7.33763173       6.11744518      14.56420087  F       39       0.02742767      -0.00875556       0.01229608
O        1.68336921       1.02548187      15.48953070  F       40      -0.06720406       0.10436904      -0.09094894
O       12.83768043       0.94510034      15.48953027  F       41      -0.04082054       0.04109763       0.02858478
O        7.33013789      10.64520717      15.48953039  F       42      -0.12483589      -0.04970931      -0.11037147
O       -3.87048772      10.25806959      15.75644575  F       43       0.16531423      -0.09883130      -0.07967386
O        0.33522381       4.13481358      15.75644581  F       44      -0.05035114       0.04963508       0.04082071
O        3.53526358      10.83869431      15.75644572  F       45      -0.02944958      -0.01493365       0.02194614
O        9.24484356       0.74344663      15.94429150  F       46       0.07417721       0.04440054       0.00236720
O        3.30515102       4.23779662      15.94429168  F       47      -0.09342715       0.08741937       0.07085782
O        9.30119327       7.63454631      15.94429132  F       48       0.01513413      -0.02735141       0.03550416
O       -1.89390768       7.68105065      15.98554452  F       49       0.09357190      -0.16053763       0.10763140
O        1.57869822       7.13509120      15.98554413  F       50      -0.11494878      -0.03321245       0.17512700
O        0.31520971      10.41543579      15.98554439  F       51       0.03883177      -0.05467916      -0.00432193
In      -1.57901381       3.03754313      16.29163881  F       52       0.05428670      -0.15229885      -0.18019819
In      -3.86363272      12.46448245      16.29163869  F       53      -0.21793464       0.08180875       0.31783974
In      -0.30746998       6.17668715      16.39885574  F       54       0.13292484      -0.03815356      -0.20273127
In      -1.78082649       9.79372205      16.39885556  F       55      -0.01377738       0.08342139      -0.06520894
In       2.08829635       9.26116873      16.39885555  F       56      -0.02696801       0.06607004      -0.01772034
In       5.44264624       9.72955081      16.29163837  F       57       0.09097141       0.03384494      -0.05236164
In      14.56745775       0.00000023      16.52452729  F       58       0.33237180      -0.18688671       0.12127505
In       7.28372884       0.00000046      16.52452727  F       59      -0.00053612      -0.01134380      -0.08633137
In       3.64186448       6.30789445      16.52452688  F       60       0.11116210      -0.02997304      -0.15642911
In      -3.64186467       6.30789479      16.52452729  F       61      -0.19238672       0.11055332      -0.33198324
In       9.06455585       2.82206686      16.65019864  F       62      -0.08678414      -0.04014764      -0.16437805
In       1.84108280       2.88623741      16.75741682  F       63       0.20088288      -0.22929756       0.06933976
In       5.19543306       3.35462016      16.65019954  F       64      -0.13604525      -0.15705232       0.08582453
In      11.14736129       0.15130547      16.75741597  F       65       0.01816068      -0.06998937      -0.06320956
In       7.59119877       6.43910216      16.65019924  F       66      -0.03952436       0.06543619      -0.06898250
In       8.86274257       9.57824538      16.75741545  F       67       0.02104643       0.33331499       0.20158838
O        9.17763668       4.93473784      17.06350958  F       68       0.05121338      -0.02950194       0.06667934
O        6.96851909       2.20035367      17.06350993  F       69       0.13336258       0.05583236       0.02996063
O        5.70503103       5.48069763      17.06350990  F       70       0.05758640       0.01900909       0.00644991
O       -2.01746347       4.98124236      17.10476289  F       71      -0.06823713       0.06710851       0.13940009
O       -1.96111486      11.87234229      17.10476307  F       72       0.14384018      -0.12750906       0.02521299
O        3.97857827       8.37799246      17.10476382  F       73      -0.00945508       0.03939847       0.02931216
O        6.94850543       8.48097521      17.29260816  F       74       0.02587795      -0.05291156       0.05573998
O       11.15421650       2.35771879      17.29260829  F       75       0.00750652       0.07419750       0.04959749
O        3.74846506       1.77709453      17.29260778  F       76      -0.05614889       0.41886926       0.30513847
O       -0.04640858       1.97058198      17.55952389  F       77      -0.37944996       0.38654482      -0.31019717
O       -5.55395094      11.67068958      17.55952349  F       78      -0.01379042      -0.58388913      -0.18949011
O        5.60035973      11.59030666      17.55952404  F       79      -0.07835864       0.04853658       0.00098947
O       -1.56166737       9.36790367      18.47080496  T       80      -0.00694540       0.00011510      -0.00375682
O        1.68599675       9.29027756      18.49343848  T       81      -0.00320960      -0.00629693       0.00654072
O       -0.04470621       6.33960994      18.52409224  T       82       0.00796856      -0.00000253      -0.01893407
O        3.42070496       6.10739540      18.69024545  T       83       0.00971903       0.00697085      -0.00147983
O       -3.73311169       6.68162045      18.67695390  T       84      -0.01187384      -0.00674893       0.00992586
O        0.37832574      12.50153931      18.67060952  T       85       0.00154573      -0.00068015       0.00392748
O        9.19418105       9.12716979      19.01665723  T       86      -0.00022695       0.00061136      -0.00465018
O        1.95001504       3.47701615      19.02672662  T       87       0.01820001      -0.00923353       0.00084558
O       10.61100600       0.10036369      18.98957316  T       88      -0.00598025      -0.01970711      -0.01121435
O        8.86278625       2.87739365      19.27229443  T       89      -0.00535503      -0.00924943       0.00091743
O        5.30992637       3.52121825      19.24042425  T       90       0.01171916      -0.00124931       0.01196134
O        7.66657098       6.23281593      19.25576150  T       91      -0.00091043      -0.00366706      -0.00059682
In      -1.91332837       5.64451462      19.42545943  T       92      -0.00292149      -0.01330756       0.01296655
In      -1.51337704      11.43553080      19.45646410  T       93       0.00375728      -0.00604364       0.01327973
In       6.94679741       1.94724912      19.21519329  T       94      -0.01150577       0.00443253      -0.00228468
In       3.42439800       8.26847206      19.47645824  T       95       0.01218911      -0.00463581       0.00571291
In       5.52407199       5.62704900      19.22456712  T       96       0.00857223      -0.00563350       0.01342160
In       9.39835304       5.04231046      19.22187979  T       97      -0.00579073       0.00180100       0.01014185
In       0.01841488       8.43686269      19.79944833  T       98      -0.01133941      -0.00149506       0.00198716
In       3.61119121       1.98457641      19.57181149  T       99       0.01191093      -0.00981577       0.00394078
In      11.02874615       2.15968013      19.45382457  T      100       0.00208300       0.00499315       0.01618689
In       7.17930207       8.52199936      19.46902815  T      101      -0.00658844      -0.00868022      -0.00165364
In      -5.42104358      11.34451445      19.80540354  T      102      -0.00454093       0.01371319      -0.00319598
In      -3.30257629       8.64035583      19.57198800  T      103       0.00030324      -0.02524159      -0.01526871
In       0.19976948       2.14686920      19.66827697  T      104      -0.00803138      -0.01769593      -0.01021414
In       1.59276659       5.48516882      19.60160814  T      105       0.00505920       0.01148392       0.01135913
In       1.84389567      11.18539006      19.58477367  T      106       0.01589545      -0.00491625      -0.00333932
In       5.27205043      11.68041594      19.69695742  T      107      -0.00914463       0.00466470       0.01207356
O        1.78469737       0.82880665      19.59489111  T      108       0.00456032      -0.01023599       0.01775108
O        7.09477389      10.61019413      20.14239053  T      109      -0.00291455      -0.00051393       0.00557274
O       12.90093300       1.21878358      20.17411232  T      110       0.02021874       0.00661501       0.00212157
O        5.39123294       7.57154601      20.08917531  T      111      -0.00314510       0.00476235       0.00400823
O       11.18997079       4.20052406      20.05888282  T      112      -0.00037013       0.01586306      -0.00453901
O        5.36516916       0.85145302      20.03018928  T      113       0.00267855       0.00616857       0.00484553
O       -0.28383265       4.21614388      20.49471810  T      114      -0.00271860       0.00242184      -0.00645936
O       -3.41659027      10.68263781      20.17027848  T      115      -0.01343119       0.01788713      -0.00680506
O        3.72899909      10.29296642      20.23010935  T      116       0.00870052       0.01338809       0.00424004
O       -1.79456893       7.45939989      20.60042384  T      117      -0.00463182       0.00287746      -0.01280892
O        0.10190691      10.46068667      20.61102240  T      118      -0.01473036       0.00136830       0.00069225
O        1.73370126       7.32677590      20.62633210  T      119       0.00750817      -0.01370913       0.00082284
O        2.24137299      -0.26704263      21.99056241  T        0       0.01946026       0.01877213      -0.00054896
O        3.09581389       1.87078684      21.79178987  T        0       0.00781628      -0.00357157      -0.00243488
C        2.97586132       0.84738092      23.93043266  T        0       0.00324987      -0.00300032       0.00643013
C        2.75365987       0.80390613      22.42065155  T        0       0.01063517       0.01289326       0.00540709
H        2.01242606       0.75383185      24.44807836  T        0      -0.00378741      -0.00341295      -0.01972938
H        3.57919898      -0.01726359      24.23296097  T        0       0.00459714      -0.00003062       0.01010624
H        3.46945007       1.77675245      24.22919885  T        0      -0.00091351      -0.00509389       0.01128997
H       -0.50265325       4.21240169      21.44656967  T        0       0.00425203       0.00704370      -0.00367278
