128
Lattice="14.567458257780915 0.0 0.0 -7.283729128890462 12.615788919807672 0.0 0.0 0.0 33.04905420593702" Properties=species:S:1:pos:R:3:move_mask:L:1:spacegroup_kinds:I:1:forces:R:3 spacegroup="P 1" unit_cell=conventional occupancy="_JSON {\"0\": {\"O\": 1.0}, \"1\": {\"O\": 1.0}, \"2\": {\"O\": 1.0}, \"3\": {\"O\": 1.0}, \"4\": {\"O\": 1.0}, \"5\": {\"O\": 1.0}, \"6\": {\"O\": 1.0}, \"7\": {\"O\": 1.0}, \"8\": {\"O\": 1.0}, \"9\": {\"O\": 1.0}, \"10\": {\"O\": 1.0}, \"11\": {\"O\": 1.0}, \"12\": {\"In\": 1.0}, \"13\": {\"In\": 1.0}, \"14\": {\"In\": 1.0}, \"15\": {\"In\": 1.0}, \"16\": {\"In\": 1.0}, \"17\": {\"In\": 1.0}, \"18\": {\"In\": 1.0}, \"19\": {\"In\": 1.0}, \"20\": {\"In\": 1.0}, \"21\": {\"In\": 1.0}, \"22\": {\"In\": 1.0}, \"23\": {\"In\": 1.0}, \"24\": {\"In\": 1.0}, \"25\": {\"In\": 1.0}, \"26\": {\"In\": 1.0}, \"27\": {\"In\": 1.0}, \"28\": {\"O\": 1.0}, \"29\": {\"O\": 1.0}, \"30\": {\"O\": 1.0}, \"31\": {\"O\": 1.0}, \"32\": {\"O\": 1.0}, \"33\": {\"O\": 1.0}, \"34\": {\"O\": 1.0}, \"35\": {\"O\": 1.0}, \"36\": {\"O\": 1.0}, \"37\": {\"O\": 1.0}, \"38\": {\"O\": 1.0}, \"39\": {\"O\": 1.0}, \"40\": {\"O\": 1.0}, \"41\": {\"O\": 1.0}, \"42\": {\"O\": 1.0}, \"43\": {\"O\": 1.0}, \"44\": {\"O\": 1.0}, \"45\": {\"O\": 1.0}, \"46\": {\"O\": 1.0}, \"47\": {\"O\": 1.0}, \"48\": {\"O\": 1.0}, \"49\": {\"O\": 1.0}, \"50\": {\"O\": 1.0}, \"51\": {\"O\": 1.0}, \"52\": {\"In\": 1.0}, \"53\": {\"In\": 1.0}, \"54\": {\"In\": 1.0}, \"55\": {\"In\": 1.0}, \"56\": {\"In\": 1.0}, \"57\": {\"In\": 1.0}, \"58\": {\"In\": 1.0}, \"59\": {\"In\": 1.0}, \"60\": {\"In\": 1.0}, \"61\": {\"In\": 1.0}, \"62\": {\"In\": 1.0}, \"63\": {\"In\": 1.0}, \"64\": {\"In\": 1.0}, \"65\": {\"In\": 1.0}, \"66\": {\"In\": 1.0}, \"67\": {\"In\": 1.0}, \"68\": {\"O\": 1.0}, \"69\": {\"O\": 1.0}, \"70\": {\"O\": 1.0}, \"71\": {\"O\": 1.0}, \"72\": {\"O\": 1.0}, \"73\": {\"O\": 1.0}, \"74\": {\"O\": 1.0}, \"75\": {\"O\": 1.0}, \"76\": {\"O\": 1.0}, \"77\": {\"O\": 1.0}, \"78\": {\"O\": 1.0}, \"79\": {\"O\": 1.0}, \"80\": {\"O\": 1.0}, \"81\": {\"O\": 1.0}, \"82\": {\"O\": 1.0}, \"83\": {\"O\": 1.0}, \"84\": {\"O\": 1.0}, \"85\": {\"O\": 1.0}, \"86\": {\"O\": 1.0}, \"87\": {\"O\": 1.0}, \"88\": {\"O\": 1.0}, \"89\": {\"O\": 1.0}, \"90\": {\"O\": 1.0}, \"91\": {\"O\": 1.0}, \"92\": {\"In\": 1.0}, \"93\": {\"In\": 1.0}, \"94\": {\"In\": 1.0}, \"95\": {\"In\": 1.0}, \"96\": {\"In\": 1.0}, \"97\": {\"In\": 1.0}, \"98\": {\"In\": 1.0}, \"99\": {\"In\": 1.0}, \"100\": {\"In\": 1.0}, \"101\": {\"In\": 1.0}, \"102\": {\"In\": 1.0}, \"103\": {\"In\": 1.0}, \"104\": {\"In\": 1.0}, \"105\": {\"In\": 1.0}, \"106\": {\"In\": 1.0}, \"107\": {\"In\": 1.0}, \"108\": {\"O\": 1.0}, \"109\": {\"O\": 1.0}, \"110\": {\"O\": 1.0}, \"111\": {\"O\": 1.0}, \"112\": {\"O\": 1.0}, \"113\": {\"O\": 1.0}, \"114\": {\"O\": 1.0}, \"115\": {\"O\": 1.0}, \"116\": {\"O\": 1.0}, \"117\": {\"O\": 1.0}, \"118\": {\"O\": 1.0}, \"119\": {\"O\": 1.0}}" energy=-707.6432495117188 free_energy=-707.6432495117188 stress="0.007584370207041502 -8.359218190889806e-05 3.6970330256735906e-05 -8.359218190889806e-05 0.007416507229208946 2.129600034095347e-05 3.6970330256735906e-05 2.129600034095347e-05 -6.453443802456604e-06" pbc="T T T"
O        5.56112551       5.29730098      12.44442493  F        0      -0.00782257       0.02012724       0.00633681
O        7.19929797       2.16742567      12.44442488  F        1       0.00934789      -0.01015458      -0.00152767
O        9.09076378       5.15106294      12.44442506  F        2       0.00963503       0.00513270       0.00193727
O        3.56236441       2.32744963      12.81467041  F        3      -0.00206161      -0.01059551      -0.02505487
O       10.77064547       1.92137361      12.81467059  F        4       0.00426656      -0.00171253      -0.01261008
O        7.51817736       8.36696557      12.81467060  F        5      -0.01449007       0.00872433      -0.00330484
O       -3.86713652       8.43746206      12.95843886  F        6       0.02263957      -0.00872216       0.01330495
O        1.91024068       5.04801920      12.95843918  F        7      -0.00828215       0.04123133       0.00608230
O        1.95689587      11.74609578      12.95843921  F        8      -0.00433710      -0.02912034       0.01928306
O       -5.62751792      11.43742505      12.90107995  F        9       0.00251825      -0.00208857      -0.00598091
O        0.19238766       2.02350350      12.90107932  F       10      -0.03571599       0.00621256      -0.01020050
O        5.43512990      11.77064967      12.90107909  F       11      -0.00446462      -0.03354240       0.00793201
In       2.02827288       0.93415595      13.34696164  F       12       0.01227074       0.01806077       0.07399268
In       5.45297263       1.43044201      13.46548669  F       13      -0.01195060       0.00942558       0.01101699
In       5.79604177       7.17815473      13.46548635  F       14       0.01875125      -0.03303562      -0.03679392
In       7.07859496      10.39217548      13.34696140  F       15       0.02370667       0.00307298       0.01196806
In      10.60217256       4.00719198      13.46548647  F       16      -0.00167572      -0.00270189      -0.01883709
In      12.74431985       1.28945811      13.34696112  F       17       0.00173485       0.01315714       0.02325736
In      -3.76992867      10.45841758      13.58493911  F       18      -0.00414586       0.02830677       0.01830921
In       0.11143913       4.12172609      13.58493797  F       19       0.01263202      -0.02092049       0.04078737
In       7.28372934       4.20526284      13.28077194  F       20      -0.02116545      -0.01557892       0.00887273
In       3.65848992      10.65143468      13.58493907  F       21       0.00200146       0.02031057      -0.05197085
In      -2.12514371       7.57248039      13.82744761  F       22      -0.03132716       0.00479922      -0.04661880
In       1.78834112       6.98912009      13.82744861  F       23       0.00062384      -0.06336379      -0.04360092
In       3.89762555       4.37439996      13.55369945  F       24       0.01206215      -0.04594042       0.03976897
In       0.33680320      10.66997741      13.82744770  F       25       0.00179403       0.04753657      -0.03982671
In       8.83030441       1.18824328      13.55369950  F       26      -0.00982163       0.02201474       0.00862624
In       9.12325787       7.05314622      13.55369981  F       27      -0.01564318      -0.00740680       0.00103758
O        1.94314284       9.09920259      13.79983277  F       28       0.01228475       0.01462364       0.04391730
O       -0.37515974       6.38337672      13.79983300  F       29       0.01364440       0.01609060       0.01972556
O       -1.56798334       9.74899853      13.79983313  F       30       0.00417656      -0.02244227       0.01001143
O       -1.90665604       3.49451490      14.07374983  F       31      -0.01884012       0.01083332      -0.01098073
O       -3.30406258      12.51974383      14.07375025  F       32       0.01608095      -0.03089178      -0.05224407
O        5.21071859       9.21731872      14.07374980  F       33      -0.02899277      -0.01441458       0.05801121
O        6.95268262       0.11029125      14.35625235  F       34       0.01342931      -0.02751695      -0.00275627
O        3.90290295       6.53944318      14.35625252  F       35      -0.00657242       0.07312626       0.05846162
O       10.99560128       5.96605484      14.35625280  F       36       0.01240817       0.00246817       0.01983984
O        5.60077915       3.29585311      14.56420047  F       37       0.02259440       0.03364304      -0.05276042
O        8.91277589       3.20249084      14.56420075  F       38       0.00056644      -0.00939752      -0.00465488
O        7.33763173       6.11744518      14.56420087  F       39       0.02252051       0.01271278      -0.00435328
O        1.68336921       1.02548187      15.48953070  F       40      -0.05753096      -0.04273460      -0.08653241
O       12.83768043       0.94510034      15.48953027  F       41      -0.06439549      -0.02336976      -0.03584617
O        7.33013789      10.64520717      15.48953039  F       42      -0.03790362      -0.03555353      -0.00695068
O       -3.87048772      10.25806959      15.75644575  F       43       0.04218827      -0.02473295      -0.01035352
O        0.33522381       4.13481358      15.75644581  F       44      -0.06611526       0.10457077      -0.05024381
O        3.53526358      10.83869431      15.75644572  F       45      -0.04449943      -0.11919047       0.06007672
O        9.24484356       0.74344663      15.94429150  F       46       0.04515231      -0.02551490      -0.03275979
O        3.30515102       4.23779662      15.94429168  F       47       0.03007352       0.22618575      -0.04340790
O        9.30119327       7.63454631      15.94429132  F       48      -0.00876960      -0.00698760      -0.00191124
O       -1.89390768       7.68105065      15.98554452  F       49       0.11109889      -0.04815894       0.08836061
O        1.57869822       7.13509120      15.98554413  F       50       0.02231088       0.08019003       0.02869010
O        0.31520971      10.41543579      15.98554439  F       51       0.05597940      -0.08846870       0.08390512
In      -1.57901381       3.03754313      16.29163881  F       52       0.08238526      -0.08242310       0.01872178
In      -3.86363272      12.46448245      16.29163869  F       53      -0.01147835       0.26156622       0.15902983
In      -0.30746998       6.17668715      16.39885574  F       54       0.11741659      -0.07992852       0.20851956
In      -1.78082649       9.79372205      16.39885556  F       55      -0.09141354       0.10016979      -0.21729180
In       2.08829635       9.26116873      16.39885555  F       56      -0.16756499       0.04463836      -0.29452905
In       5.44264624       9.72955081      16.29163837  F       57       0.19225615       0.14241885      -0.11284624
In      14.56745775       0.00000023      16.52452729  F       58       0.09351141       0.08713867       0.01265674
In       7.28372884       0.00000046      16.52452727  F       59      -0.02360391       0.11119970      -0.01941754
In       3.64186448       6.30789445      16.52452688  F       60      -0.05436103      -0.32683209      -0.04596022
In      -3.64186467       6.30789479      16.52452729  F       61      -0.06325795       0.00872405      -0.00346067
In       9.06455585       2.82206686      16.65019864  F       62      -0.06977180      -0.02824300      -0.01915026
In       1.84108280       2.88623741      16.75741682  F       63       0.15751344      -0.14278641       0.03454562
In       5.19543306       3.35462016      16.65019954  F       64      -0.13916050      -0.19706367       0.17895316
In      11.14736129       0.15130547      16.75741597  F       65       0.00296019       0.06619611      -0.00432476
In       7.59119877       6.43910216      16.65019924  F       66      -0.00807959      -0.05261528      -0.04130512
In       8.86274257       9.57824538      16.75741545  F       67       0.04271102       0.08132251      -0.04038330
O        9.17763668       4.93473784      17.06350958  F       68       0.00728811       0.02323577       0.00783819
O        6.96851909       2.20035367      17.06350993  F       69       0.17137124      -0.08068371      -0.12554865
O        5.70503103       5.48069763      17.06350990  F       70      -0.13763572       0.26253057       0.04338272
O       -2.01746347       4.98124236      17.10476289  F       71       0.17528799       0.16213928       0.14427122
O       -1.96111486      11.87234229      17.10476307  F       72       0.06409800      -0.12564270       0.02380845
O        3.97857827       8.37799246      17.10476382  F       73       0.05306920       0.08670773       0.06334978
O        6.94850543       8.48097521      17.29260816  F       74      -0.07350069      -0.00695269       0.04910157
O       11.15421650       2.35771879      17.29260829  F       75      -0.02430068      -0.00596341       0.01950713
O        3.74846506       1.77709453      17.29260778  F       76       0.04286295       0.01668793       0.18855390
O       -0.04640858       1.97058198      17.55952389  F       77      -0.25042865      -0.11532380      -0.20154481
O       -5.55395094      11.67068958      17.55952349  F       78      -0.03018514      -0.13131803      -0.12451079
O        5.60035973      11.59030666      17.55952404  F       79      -0.06007118      -0.07407454      -0.03702286
O       -1.66090216       9.41582353      18.47372500  T       80      -0.00112831       0.00367185      -0.00523102
O        1.68633654       9.27467433      18.49042640  T       81      -0.01100436      -0.01053203       0.00641942
O        0.03904934       6.49194012      18.53415332  T       82       0.00262305       0.00518367       0.00646147
O        3.33958703       6.15119984      18.72754849  T       83       0.00241539      -0.00461647      -0.00947903
O       -3.69690097       6.64629772      18.69439009  T       84       0.00364563      -0.00273162       0.00515782
O        0.34137843      12.49131421      18.68266027  T       85      -0.00072867      -0.00843889      -0.00795782
O        9.20041938       9.11762669      18.96832429  T       86       0.00358776      -0.00003451      -0.00308977
O        2.03452349       3.37893212      18.88523204  T       87       0.00204399       0.00746289       0.00084854
O       10.58207874       0.07883878      18.97331045  T       88      -0.01226598       0.00487417      -0.00058693
O        8.85238017       2.86072905      19.25403089  T       89      -0.00332785      -0.00031115       0.00121152
O        5.36609320       3.53245278      19.16793926  T       90      -0.00349367      -0.01477093      -0.00430250
O        7.66182014       6.23428001      19.25486341  T       91      -0.01078403       0.00009283      -0.00128824
In      -1.82309592       5.54231014      19.48530713  T       92      -0.00583786      -0.00274393       0.00828657
In      -1.57472186      11.45631353      19.47199055  T       93      -0.00598223       0.00058765       0.00379749
In       6.93680214       1.95158437      19.21128364  T       94       0.00277318      -0.00241837      -0.00236690
In       3.48657662       8.29636052      19.37684440  T       95       0.00841619      -0.00120091       0.00176363
In       5.49272181       5.61520957      19.23321466  T       96       0.00451544       0.02162652       0.00932519
In       9.41036340       5.03859238      19.21986661  T       97       0.00357848       0.00795746       0.01155709
In      -0.07298594       8.44642201      19.67067343  T       98      -0.00805067      -0.01146692       0.00456911
In       3.61087657       2.04758171      19.57774692  T       99       0.01481549      -0.00602629       0.00068471
In      11.04221104       2.15115741      19.46424214  T      100       0.00052150      -0.00315014      -0.00506845
In       7.20111468       8.48400322      19.46372773  T      101       0.00166949      -0.00471608       0.00535479
In      -5.45834725      11.34253157      19.69568509  T      102      -0.00129266      -0.00975144       0.00123723
In      -3.33987147       8.60168807      19.60232872  T      103      -0.00725248       0.00042575      -0.00133836
In       0.19049163       2.19695222      19.68221131  T      104      -0.01472727      -0.00498977      -0.00070345
In       1.55569953       5.31659392      19.67865916  T      105       0.01502599       0.00065924       0.00521772
In       1.82238642      11.19003901      19.57973157  T      106       0.00457454      -0.00583243       0.00286081
In       5.26802963      11.68571064      19.69676823  T      107      -0.00225279      -0.00127847      -0.00091870
O        1.81085485       0.82778942      20.09435488  T      108      -0.00099777       0.00287864      -0.00051564
O        7.09201298      10.57605240      20.13431259  T      109      -0.01456840       0.00693943       0.00629461
O       12.88953544       1.16894022      20.15218800  T      110      -0.00283962       0.00418079      -0.00198084
O        5.38969974       7.56346004      20.09050102  T      111      -0.01475601      -0.01592990      -0.01311657
O       11.15068088       4.17723844      20.08124210  T      112       0.00659606      -0.00053984       0.00521034
O        5.32870056       0.87155627      20.03627729  T      113      -0.01524131      -0.00140278       0.00274497
O       -0.26124053       4.22356070      20.22721523  T      114      -0.00841811       0.00176392       0.00306857
O       -3.48985734      10.68478677      20.24429823  T      115       0.01229766       0.00014001      -0.00009966
O        3.72373819      10.27819492      20.21850985  T      116      -0.00770235      -0.00139971       0.00510687
O       -1.79488863       7.46084802      20.59681525  T      117       0.00766130      -0.00551089      -0.00462544
O        0.07139825      10.43397932      20.57519907  T      118      -0.00828299       0.00541753      -0.00280905
O        1.72006005       7.44353446      20.65277142  T      119      -0.01205793      -0.00967764       0.00271297
O        2.55834874       4.93610167      21.63300946  T        0       0.01111698      -0.01319605       0.00539792
O        3.50490400       2.86761184      21.67279683  T        0      -0.00734687       0.00913686      -0.00064558
C        2.69275991       3.80677127      23.70403719  T        0       0.00248534       0.00752686       0.00923035
C        2.94122063       3.86138313      22.21178895  T        0      -0.01404326      -0.00028449       0.01225531
H        3.10361578       4.70394559      24.18422313  T        0       0.01211930       0.00814756      -0.01049050
H        1.60695241       3.82406590      23.87627146  T        0       0.01107072       0.01026658       0.01360208
H        3.12374342       2.89930124      24.13736458  T        0       0.00495809       0.01555476       0.00160410
H        1.80193222       7.39160022      21.62203538  T        0       0.00598443      -0.00466629      -0.00174338
