128
Lattice="14.567458257780915 0.0 0.0 -7.283729128890462 12.615788919807672 0.0 0.0 0.0 33.04905420593702" Properties=species:S:1:pos:R:3:move_mask:L:1:spacegroup_kinds:I:1:forces:R:3 spacegroup="P 1" unit_cell=conventional occupancy="_JSON {\"0\": {\"O\": 1.0}, \"1\": {\"O\": 1.0}, \"2\": {\"O\": 1.0}, \"3\": {\"O\": 1.0}, \"4\": {\"O\": 1.0}, \"5\": {\"O\": 1.0}, \"6\": {\"O\": 1.0}, \"7\": {\"O\": 1.0}, \"8\": {\"O\": 1.0}, \"9\": {\"O\": 1.0}, \"10\": {\"O\": 1.0}, \"11\": {\"O\": 1.0}, \"12\": {\"In\": 1.0}, \"13\": {\"In\": 1.0}, \"14\": {\"In\": 1.0}, \"15\": {\"In\": 1.0}, \"16\": {\"In\": 1.0}, \"17\": {\"In\": 1.0}, \"18\": {\"In\": 1.0}, \"19\": {\"In\": 1.0}, \"20\": {\"In\": 1.0}, \"21\": {\"In\": 1.0}, \"22\": {\"In\": 1.0}, \"23\": {\"In\": 1.0}, \"24\": {\"In\": 1.0}, \"25\": {\"In\": 1.0}, \"26\": {\"In\": 1.0}, \"27\": {\"In\": 1.0}, \"28\": {\"O\": 1.0}, \"29\": {\"O\": 1.0}, \"30\": {\"O\": 1.0}, \"31\": {\"O\": 1.0}, \"32\": {\"O\": 1.0}, \"33\": {\"O\": 1.0}, \"34\": {\"O\": 1.0}, \"35\": {\"O\": 1.0}, \"36\": {\"O\": 1.0}, \"37\": {\"O\": 1.0}, \"38\": {\"O\": 1.0}, \"39\": {\"O\": 1.0}, \"40\": {\"O\": 1.0}, \"41\": {\"O\": 1.0}, \"42\": {\"O\": 1.0}, \"43\": {\"O\": 1.0}, \"44\": {\"O\": 1.0}, \"45\": {\"O\": 1.0}, \"46\": {\"O\": 1.0}, \"47\": {\"O\": 1.0}, \"48\": {\"O\": 1.0}, \"49\": {\"O\": 1.0}, \"50\": {\"O\": 1.0}, \"51\": {\"O\": 1.0}, \"52\": {\"In\": 1.0}, \"53\": {\"In\": 1.0}, \"54\": {\"In\": 1.0}, \"55\": {\"In\": 1.0}, \"56\": {\"In\": 1.0}, \"57\": {\"In\": 1.0}, \"58\": {\"In\": 1.0}, \"59\": {\"In\": 1.0}, \"60\": {\"In\": 1.0}, \"61\": {\"In\": 1.0}, \"62\": {\"In\": 1.0}, \"63\": {\"In\": 1.0}, \"64\": {\"In\": 1.0}, \"65\": {\"In\": 1.0}, \"66\": {\"In\": 1.0}, \"67\": {\"In\": 1.0}, \"68\": {\"O\": 1.0}, \"69\": {\"O\": 1.0}, \"70\": {\"O\": 1.0}, \"71\": {\"O\": 1.0}, \"72\": {\"O\": 1.0}, \"73\": {\"O\": 1.0}, \"74\": {\"O\": 1.0}, \"75\": {\"O\": 1.0}, \"76\": {\"O\": 1.0}, \"77\": {\"O\": 1.0}, \"78\": {\"O\": 1.0}, \"79\": {\"O\": 1.0}, \"80\": {\"O\": 1.0}, \"81\": {\"O\": 1.0}, \"82\": {\"O\": 1.0}, \"83\": {\"O\": 1.0}, \"84\": {\"O\": 1.0}, \"85\": {\"O\": 1.0}, \"86\": {\"O\": 1.0}, \"87\": {\"O\": 1.0}, \"88\": {\"O\": 1.0}, \"89\": {\"O\": 1.0}, \"90\": {\"O\": 1.0}, \"91\": {\"O\": 1.0}, \"92\": {\"In\": 1.0}, \"93\": {\"In\": 1.0}, \"94\": {\"In\": 1.0}, \"95\": {\"In\": 1.0}, \"96\": {\"In\": 1.0}, \"97\": {\"In\": 1.0}, \"98\": {\"In\": 1.0}, \"99\": {\"In\": 1.0}, \"100\": {\"In\": 1.0}, \"101\": {\"In\": 1.0}, \"102\": {\"In\": 1.0}, \"103\": {\"In\": 1.0}, \"104\": {\"In\": 1.0}, \"105\": {\"In\": 1.0}, \"106\": {\"In\": 1.0}, \"107\": {\"In\": 1.0}, \"108\": {\"O\": 1.0}, \"109\": {\"O\": 1.0}, \"110\": {\"O\": 1.0}, \"111\": {\"O\": 1.0}, \"112\": {\"O\": 1.0}, \"113\": {\"O\": 1.0}, \"114\": {\"O\": 1.0}, \"115\": {\"O\": 1.0}, \"116\": {\"O\": 1.0}, \"117\": {\"O\": 1.0}, \"118\": {\"O\": 1.0}, \"119\": {\"O\": 1.0}}" energy=-706.62060546875 free_energy=-706.62060546875 stress="0.007289875764399767 0.00031009118538349867 3.2752823244663887e-06 0.00031009118538349867 0.007630671374499798 1.4806659237365238e-05 3.2752823244663887e-06 1.4806659237365238e-05 -0.00011379815259715542" pbc="T T T"
O        5.56112551       5.29730098      12.44442493  F        0      -0.01768969      -0.02118216       0.00384390
O        7.19929797       2.16742567      12.44442488  F        1      -0.01507628      -0.01893929       0.01131999
O        9.09076378       5.15106294      12.44442506  F        2      -0.00429824      -0.02021825      -0.00667441
O        3.56236441       2.32744963      12.81467041  F        3       0.01073042      -0.00341997       0.00408077
O       10.77064547       1.92137361      12.81467059  F        4      -0.00310211      -0.00903010      -0.00557822
O        7.51817736       8.36696557      12.81467060  F        5      -0.01729020       0.01342759      -0.02892637
O       -3.86713652       8.43746206      12.95843886  F        6       0.03862147       0.01934563      -0.01011485
O        1.91024068       5.04801920      12.95843918  F        7       0.00550833       0.01030297       0.00366968
O        1.95689587      11.74609578      12.95843921  F        8      -0.03040434       0.00008123       0.02620149
O       -5.62751792      11.43742505      12.90107995  F        9       0.03282644       0.03818420       0.00048643
O        0.19238766       2.02350350      12.90107932  F       10      -0.00582897      -0.00371251       0.00387454
O        5.43512990      11.77064967      12.90107909  F       11      -0.00432560      -0.00538246      -0.00383860
In       2.02827288       0.93415595      13.34696164  F       12      -0.01484780      -0.00223215      -0.01839291
In       5.45297263       1.43044201      13.46548669  F       13      -0.00438181       0.00749329      -0.07539195
In       5.79604177       7.17815473      13.46548635  F       14       0.02375346       0.00456770       0.01300965
In       7.07859496      10.39217548      13.34696140  F       15       0.00696608      -0.02758510       0.06691973
In      10.60217256       4.00719198      13.46548647  F       16       0.01527446       0.04965000       0.00078274
In      12.74431985       1.28945811      13.34696112  F       17      -0.00860798       0.01258127       0.01502761
In      -3.76992867      10.45841758      13.58493911  F       18      -0.02661293      -0.05422207       0.03990920
In       0.11143913       4.12172609      13.58493797  F       19      -0.01549138       0.01031049       0.03026867
In       7.28372934       4.20526284      13.28077194  F       20       0.03647000       0.05899324      -0.01108535
In       3.65848992      10.65143468      13.58493907  F       21       0.02758431      -0.01978300       0.00951847
In      -2.12514371       7.57248039      13.82744761  F       22      -0.05134256      -0.02511296       0.07294054
In       1.78834112       6.98912009      13.82744861  F       23      -0.00646073      -0.03076869       0.00137956
In       3.89762555       4.37439996      13.55369945  F       24      -0.00280499       0.03292083      -0.03272428
In       0.33680320      10.66997741      13.82744770  F       25       0.02556632      -0.02097829      -0.07319516
In       8.83030441       1.18824328      13.55369950  F       26       0.02203241       0.04698666      -0.06709720
In       9.12325787       7.05314622      13.55369981  F       27       0.00182658       0.00354912       0.09953315
O        1.94314284       9.09920259      13.79983277  F       28      -0.01853511       0.03701872       0.00330138
O       -0.37515974       6.38337672      13.79983300  F       29       0.04064023      -0.01495412      -0.03695619
O       -1.56798334       9.74899853      13.79983313  F       30       0.01548678       0.03589799      -0.00132936
O       -1.90665604       3.49451490      14.07374983  F       31       0.00335534      -0.00956160      -0.03231412
O       -3.30406258      12.51974383      14.07375025  F       32       0.03503805       0.04260629       0.06285419
O        5.21071859       9.21731872      14.07374980  F       33      -0.03480113       0.00730860      -0.04398566
O        6.95268262       0.11029125      14.35625235  F       34      -0.02626610       0.01079911       0.09613612
O        3.90290295       6.53944318      14.35625252  F       35      -0.00540258      -0.01837206      -0.00026895
O       10.99560128       5.96605484      14.35625280  F       36       0.02157268      -0.01718313      -0.07841656
O        5.60077915       3.29585311      14.56420047  F       37      -0.01341299      -0.03913154       0.09001040
O        8.91277589       3.20249084      14.56420075  F       38      -0.04208507      -0.08210091      -0.00096428
O        7.33763173       6.11744518      14.56420087  F       39      -0.02643605      -0.04974078      -0.07407254
O        1.68336921       1.02548187      15.48953070  F       40       0.09301725       0.06678900       0.03975689
O       12.83768043       0.94510034      15.48953027  F       41      -0.01190127       0.02151699      -0.00014099
O        7.33013789      10.64520717      15.48953039  F       42      -0.00564229       0.10437343      -0.06226084
O       -3.87048772      10.25806959      15.75644575  F       43       0.10732961       0.11745095      -0.05436082
O        0.33522381       4.13481358      15.75644581  F       44       0.04469505      -0.03073840      -0.05497248
O        3.53526358      10.83869431      15.75644572  F       45      -0.03615654       0.00451639      -0.00804020
O        9.24484356       0.74344663      15.94429150  F       46      -0.17494754      -0.03786084       0.13005431
O        3.30515102       4.23779662      15.94429168  F       47       0.04938522      -0.13646263       0.02235653
O        9.30119327       7.63454631      15.94429132  F       48       0.03691839      -0.02764621      -0.13142602
O       -1.89390768       7.68105065      15.98554452  F       49       0.09944588       0.02632412      -0.11964382
O        1.57869822       7.13509120      15.98554413  F       50       0.02752557       0.04686658      -0.00517637
O        0.31520971      10.41543579      15.98554439  F       51      -0.06598990       0.14269707       0.11571874
In      -1.57901381       3.03754313      16.29163881  F       52      -0.02838574       0.08156271      -0.00304296
In      -3.86363272      12.46448245      16.29163869  F       53      -0.25816524      -0.22266012      -0.15901871
In      -0.30746998       6.17668715      16.39885574  F       54      -0.08254763      -0.00887233      -0.03509040
In      -1.78082649       9.79372205      16.39885556  F       55      -0.14846352      -0.36123699      -0.10715922
In       2.08829635       9.26116873      16.39885555  F       56       0.07401985      -0.04737100      -0.00974338
In       5.44264624       9.72955081      16.29163837  F       57       0.22909701      -0.15030140       0.16543511
In      14.56745775       0.00000023      16.52452729  F       58      -0.02859018      -0.09796998       0.01442286
In       7.28372884       0.00000046      16.52452727  F       59       0.07690303      -0.01797899      -0.11708698
In       3.64186448       6.30789445      16.52452688  F       60      -0.00418499       0.02632935       0.01848892
In      -3.64186467       6.30789479      16.52452729  F       61      -0.03856808       0.01251145      -0.15074323
In       9.06455585       2.82206686      16.65019864  F       62       0.24631092       0.38595828      -0.05229078
In       1.84108280       2.88623741      16.75741682  F       63      -0.30875051       0.14487012      -0.35400862
In       5.19543306       3.35462016      16.65019954  F       64       0.00293757       0.27814662      -0.40771747
In      11.14736129       0.15130547      16.75741597  F       65       0.08846804      -0.04079695       0.01816388
In       7.59119877       6.43910216      16.65019924  F       66       0.09226193       0.16707610       0.23523913
In       8.86274257       9.57824538      16.75741545  F       67      -0.12577607      -0.21531926       0.13734218
O        9.17763668       4.93473784      17.06350958  F       68       0.08502828      -0.10173124       0.16063616
O        6.96851909       2.20035367      17.06350993  F       69      -0.08075495       0.00966933       0.12726603
O        5.70503103       5.48069763      17.06350990  F       70      -0.20817427      -0.36457431      -0.02450259
O       -2.01746347       4.98124236      17.10476289  F       71       0.16862908      -0.14030424      -0.03834620
O       -1.96111486      11.87234229      17.10476307  F       72       0.04949081       0.04093060       0.25160897
O        3.97857827       8.37799246      17.10476382  F       73      -0.14661971      -0.02816389       0.02288237
O        6.94850543       8.48097521      17.29260816  F       74       0.05838546      -0.01130977       0.24183476
O       11.15421650       2.35771879      17.29260829  F       75      -0.03547879      -0.06623688      -0.02589355
O        3.74846506       1.77709453      17.29260778  F       76       0.19406623      -0.01221228       0.35761303
O       -0.04640858       1.97058198      17.55952389  F       77       0.00742878      -0.01814717       0.00521037
O       -5.55395094      11.67068958      17.55952349  F       78       0.12810788       0.31196779      -0.15799406
O        5.60035973      11.59030666      17.55952404  F       79      -0.14372155       0.13400464      -0.10109168
O       -1.65392656       9.34619078      18.47698424  T       80      -0.01289247       0.01075034       0.00977713
O        1.68903800       9.35023323      18.48683332  T       81       0.00104640       0.01323733       0.00532937
O       -0.03423827       6.49148970      18.47616972  T       82       0.00249735       0.01397987       0.00616896
O        3.39421332       6.03808378      18.69067507  T       83       0.00369295       0.00176096      -0.01065377
O       -3.64573065       6.64731987      18.64160482  T       84       0.00255233      -0.00049755       0.00719081
O        0.21360100      12.55377715      18.76204440  T       85       0.01108210       0.01004776      -0.01762285
O        9.23624370       9.17299954      18.91133369  T       86      -0.00494708       0.00563025       0.00472852
O        2.02358449       3.45226595      18.92857109  T       87      -0.00429803       0.00540054      -0.00000185
O       10.53511552       0.10874289      18.96514966  T       88       0.00172812       0.00280882      -0.00247400
O        8.87451797       2.90836585      19.27526298  T       89      -0.01701850      -0.00508237       0.00049061
O        5.33199134       3.44237318      19.31027331  T       90       0.00825143       0.00403957       0.01135767
O        7.62867370       6.18614455      19.15843684  T       91      -0.00391123       0.00965661      -0.00981501
In      -1.82636588       5.57012603      19.48935321  T       92       0.00138383       0.00380097      -0.01378123
In      -1.53874861      11.28174203      19.44439813  T       93      -0.00566114      -0.02242938       0.00720472
In       7.00426259       2.00393473      19.21443323  T       94       0.00878519       0.01174316       0.00288728
In       3.42228196       8.26040127      19.47502264  T       95      -0.02184925       0.01342561      -0.00271802
In       5.50622050       5.64224006      19.20869290  T       96       0.00163478       0.00777477       0.00458427
In       9.44807416       5.15059734      19.27090411  T       97      -0.00414076      -0.00575585      -0.01296286
In       0.01927244       8.39307212      19.75117233  T       98      -0.00500532      -0.00058165      -0.01064117
In       3.54306333       2.06988491      19.43664364  T       99       0.00368178       0.00372069       0.00112854
In      11.04560683       2.17361644      19.45667265  T      100       0.00240597       0.02254659       0.01865505
In       7.27130311       8.46866908      19.58747250  T      101      -0.01311285      -0.01344606       0.00882796
In      -5.44275206      11.32192477      19.68000952  T      102       0.01058433      -0.00065935      -0.01690257
In      -3.39932121       8.51516702      19.71558103  T      103       0.01701939       0.01182494      -0.00276458
In       0.16897277       2.23843095      19.69632768  T      104       0.00535721       0.01037222       0.01527175
In       1.49023614       5.46659927      19.59879781  T      105       0.00221074      -0.01062247      -0.00202563
In       1.84857731      11.19422444      19.61641326  T      106      -0.01086367      -0.00813882       0.00027028
In       5.27597765      11.67681434      19.69488302  T      107      -0.00150308      -0.00108260       0.00487584
O        1.88391534       0.89077824      20.13603847  T      108       0.00494896       0.00543506       0.00476453
O        7.11680158      10.65728760      20.07018785  T      109      -0.01376936       0.00725245       0.00126320
O       12.89143304       1.18197723      20.13262573  T      110       0.00691659      -0.01403509       0.00069833
O        5.37526068       7.58766961      20.02306579  T      111      -0.00293041      -0.00809431       0.00020844
O       11.16035107       4.18873922      20.08105881  T      112       0.01116368       0.00421423      -0.00032550
O        5.27521613       0.85437868      20.26454779  T      113       0.00339366       0.00268507      -0.00343353
O       -0.22326237       4.25860105      20.26016982  T      114       0.01492470      -0.00576392       0.00350612
O       -3.45368070      10.71178636      20.27295031  T      115       0.00176678       0.01161200      -0.00044256
O        3.73388954      10.30858934      20.25335024  T      116      -0.00054669      -0.00011832      -0.00199646
O       -1.73038304       7.45966697      20.60269485  T      117      -0.00877786       0.00545004       0.00092161
O        0.09599693      10.44828768      20.60385744  T      118       0.00358848       0.01285350       0.01211530
O        1.76282388       7.34521908      20.59103245  T      119      -0.00025760       0.00356808      -0.00293708
O       -4.67384672       7.20406209      21.20030709  T        0      -0.00730723       0.00287583       0.01281869
O       -6.62852506       8.22159342      21.72296891  T        0       0.00229502      -0.01431519      -0.00759934
C       -5.14086620       7.63067397      23.49243448  T        0      -0.00015199      -0.00714272       0.01077743
C       -5.51616874       7.69770873      22.03003928  T        0       0.01373529      -0.00511147       0.01376462
H       -5.28654014       6.60298331      23.85342886  T        0       0.00309716      -0.00710594       0.00609072
H       -4.07363968       7.86399971      23.60528710  T        0      -0.02728892      -0.00127972      -0.00071950
H       -5.76612349       8.31170076      24.07730611  T        0       0.00650001      -0.02773526       0.00885739
H       -2.04192919      13.39065445      21.23899308  T        0       0.01560685       0.00644987      -0.00274062
