128
Lattice="14.567458257780915 0.0 0.0 -7.283729128890462 12.615788919807672 0.0 0.0 0.0 33.04905420593702" Properties=species:S:1:pos:R:3:move_mask:L:1:spacegroup_kinds:I:1:forces:R:3 spacegroup="P 1" unit_cell=conventional occupancy="_JSON {\"0\": {\"O\": 1.0}, \"1\": {\"O\": 1.0}, \"2\": {\"O\": 1.0}, \"3\": {\"O\": 1.0}, \"4\": {\"O\": 1.0}, \"5\": {\"O\": 1.0}, \"6\": {\"O\": 1.0}, \"7\": {\"O\": 1.0}, \"8\": {\"O\": 1.0}, \"9\": {\"O\": 1.0}, \"10\": {\"O\": 1.0}, \"11\": {\"O\": 1.0}, \"12\": {\"In\": 1.0}, \"13\": {\"In\": 1.0}, \"14\": {\"In\": 1.0}, \"15\": {\"In\": 1.0}, \"16\": {\"In\": 1.0}, \"17\": {\"In\": 1.0}, \"18\": {\"In\": 1.0}, \"19\": {\"In\": 1.0}, \"20\": {\"In\": 1.0}, \"21\": {\"In\": 1.0}, \"22\": {\"In\": 1.0}, \"23\": {\"In\": 1.0}, \"24\": {\"In\": 1.0}, \"25\": {\"In\": 1.0}, \"26\": {\"In\": 1.0}, \"27\": {\"In\": 1.0}, \"28\": {\"O\": 1.0}, \"29\": {\"O\": 1.0}, \"30\": {\"O\": 1.0}, \"31\": {\"O\": 1.0}, \"32\": {\"O\": 1.0}, \"33\": {\"O\": 1.0}, \"34\": {\"O\": 1.0}, \"35\": {\"O\": 1.0}, \"36\": {\"O\": 1.0}, \"37\": {\"O\": 1.0}, \"38\": {\"O\": 1.0}, \"39\": {\"O\": 1.0}, \"40\": {\"O\": 1.0}, \"41\": {\"O\": 1.0}, \"42\": {\"O\": 1.0}, \"43\": {\"O\": 1.0}, \"44\": {\"O\": 1.0}, \"45\": {\"O\": 1.0}, \"46\": {\"O\": 1.0}, \"47\": {\"O\": 1.0}, \"48\": {\"O\": 1.0}, \"49\": {\"O\": 1.0}, \"50\": {\"O\": 1.0}, \"51\": {\"O\": 1.0}, \"52\": {\"In\": 1.0}, \"53\": {\"In\": 1.0}, \"54\": {\"In\": 1.0}, \"55\": {\"In\": 1.0}, \"56\": {\"In\": 1.0}, \"57\": {\"In\": 1.0}, \"58\": {\"In\": 1.0}, \"59\": {\"In\": 1.0}, \"60\": {\"In\": 1.0}, \"61\": {\"In\": 1.0}, \"62\": {\"In\": 1.0}, \"63\": {\"In\": 1.0}, \"64\": {\"In\": 1.0}, \"65\": {\"In\": 1.0}, \"66\": {\"In\": 1.0}, \"67\": {\"In\": 1.0}, \"68\": {\"O\": 1.0}, \"69\": {\"O\": 1.0}, \"70\": {\"O\": 1.0}, \"71\": {\"O\": 1.0}, \"72\": {\"O\": 1.0}, \"73\": {\"O\": 1.0}, \"74\": {\"O\": 1.0}, \"75\": {\"O\": 1.0}, \"76\": {\"O\": 1.0}, \"77\": {\"O\": 1.0}, \"78\": {\"O\": 1.0}, \"79\": {\"O\": 1.0}, \"80\": {\"O\": 1.0}, \"81\": {\"O\": 1.0}, \"82\": {\"O\": 1.0}, \"83\": {\"O\": 1.0}, \"84\": {\"O\": 1.0}, \"85\": {\"O\": 1.0}, \"86\": {\"O\": 1.0}, \"87\": {\"O\": 1.0}, \"88\": {\"O\": 1.0}, \"89\": {\"O\": 1.0}, \"90\": {\"O\": 1.0}, \"91\": {\"O\": 1.0}, \"92\": {\"In\": 1.0}, \"93\": {\"In\": 1.0}, \"94\": {\"In\": 1.0}, \"95\": {\"In\": 1.0}, \"96\": {\"In\": 1.0}, \"97\": {\"In\": 1.0}, \"98\": {\"In\": 1.0}, \"99\": {\"In\": 1.0}, \"100\": {\"In\": 1.0}, \"101\": {\"In\": 1.0}, \"102\": {\"In\": 1.0}, \"103\": {\"In\": 1.0}, \"104\": {\"In\": 1.0}, \"105\": {\"In\": 1.0}, \"106\": {\"In\": 1.0}, \"107\": {\"In\": 1.0}, \"108\": {\"O\": 1.0}, \"109\": {\"O\": 1.0}, \"110\": {\"O\": 1.0}, \"111\": {\"O\": 1.0}, \"112\": {\"O\": 1.0}, \"113\": {\"O\": 1.0}, \"114\": {\"O\": 1.0}, \"115\": {\"O\": 1.0}, \"116\": {\"O\": 1.0}, \"117\": {\"O\": 1.0}, \"118\": {\"O\": 1.0}, \"119\": {\"O\": 1.0}}" energy=-706.8113403320312 free_energy=-706.8113403320312 stress="0.007284276653081179 -7.409610407194123e-05 5.730343400500715e-05 -7.409610407194123e-05 0.006552539765834808 1.0325195944460575e-05 5.730343400500715e-05 1.0325195944460575e-05 5.040890391683206e-05" pbc="T T T"
O        5.56112551       5.29730098      12.44442493  F        0      -0.01406191       0.00471587       0.00355828
O        7.19929797       2.16742567      12.44442488  F        1      -0.00601543      -0.00699958      -0.00201356
O        9.09076378       5.15106294      12.44442506  F        2       0.01256874       0.00601771       0.00471568
O        3.56236441       2.32744963      12.81467041  F        3      -0.00882608      -0.00630448      -0.00806886
O       10.77064547       1.92137361      12.81467059  F        4       0.02199197       0.00371838      -0.00758833
O        7.51817736       8.36696557      12.81467060  F        5      -0.00673229       0.01257312      -0.00842237
O       -3.86713652       8.43746206      12.95843886  F        6       0.02949148      -0.00644879       0.01712579
O        1.91024068       5.04801920      12.95843918  F        7      -0.01806080       0.01943618       0.02614814
O        1.95689587      11.74609578      12.95843921  F        8      -0.01295675      -0.02383238       0.01093513
O       -5.62751792      11.43742505      12.90107995  F        9       0.01397151       0.01726730       0.00432861
O        0.19238766       2.02350350      12.90107932  F       10      -0.01680384       0.01460422       0.01349306
O        5.43512990      11.77064967      12.90107909  F       11       0.00590768      -0.01414232       0.00189835
In       2.02827288       0.93415595      13.34696164  F       12       0.01548502      -0.00034248       0.00278285
In       5.45297263       1.43044201      13.46548669  F       13       0.01572823       0.00176761      -0.01425904
In       5.79604177       7.17815473      13.46548635  F       14       0.01564749      -0.01048075      -0.01368487
In       7.07859496      10.39217548      13.34696140  F       15       0.00336587      -0.01772429       0.01134551
In      10.60217256       4.00719198      13.46548647  F       16      -0.04353727      -0.00278476      -0.01648974
In      12.74431985       1.28945811      13.34696112  F       17      -0.01854995      -0.01335493       0.00602145
In      -3.76992867      10.45841758      13.58493911  F       18      -0.00854465       0.00345923      -0.01039074
In       0.11143913       4.12172609      13.58493797  F       19       0.00301216      -0.01053385      -0.06631753
In       7.28372934       4.20526284      13.28077194  F       20       0.01143956       0.00523224       0.01374704
In       3.65848992      10.65143468      13.58493907  F       21       0.00917708       0.00426888       0.00637145
In      -2.12514371       7.57248039      13.82744761  F       22      -0.05892290       0.01810263      -0.04876187
In       1.78834112       6.98912009      13.82744861  F       23       0.02870984      -0.03055514      -0.08412176
In       3.89762555       4.37439996      13.55369945  F       24       0.03119481      -0.01098605      -0.00480572
In       0.33680320      10.66997741      13.82744770  F       25       0.02014397       0.04163796      -0.01617368
In       8.83030441       1.18824328      13.55369950  F       26      -0.00032483       0.02550985       0.02142890
In       9.12325787       7.05314622      13.55369981  F       27      -0.02860668      -0.01243217      -0.00510340
O        1.94314284       9.09920259      13.79983277  F       28      -0.00959890      -0.01409882       0.02673146
O       -0.37515974       6.38337672      13.79983300  F       29       0.01604640      -0.01218808       0.05650622
O       -1.56798334       9.74899853      13.79983313  F       30      -0.01004797      -0.02367640       0.02089846
O       -1.90665604       3.49451490      14.07374983  F       31       0.01803496       0.02700561       0.05607359
O       -3.30406258      12.51974383      14.07375025  F       32      -0.00076807      -0.00241297      -0.00265059
O        5.21071859       9.21731872      14.07374980  F       33      -0.01069507      -0.00194791      -0.00969078
O        6.95268262       0.11029125      14.35625235  F       34      -0.00721368      -0.00998656      -0.00403847
O        3.90290295       6.53944318      14.35625252  F       35      -0.03899152       0.01371801       0.01938031
O       10.99560128       5.96605484      14.35625280  F       36       0.05773661      -0.00485283       0.03880658
O        5.60077915       3.29585311      14.56420047  F       37      -0.02256970       0.01490755      -0.01301020
O        8.91277589       3.20249084      14.56420075  F       38      -0.00855385      -0.02453215      -0.03084290
O        7.33763173       6.11744518      14.56420087  F       39       0.00794142       0.00129495      -0.02669275
O        1.68336921       1.02548187      15.48953070  F       40       0.00215419       0.01803868       0.01705661
O       12.83768043       0.94510034      15.48953027  F       41       0.03800217       0.00615907      -0.00427367
O        7.33013789      10.64520717      15.48953039  F       42       0.01387942       0.01527154      -0.01057503
O       -3.87048772      10.25806959      15.75644575  F       43       0.03477022      -0.02171987       0.02618849
O        0.33522381       4.13481358      15.75644581  F       44      -0.04174921       0.11801761       0.07456906
O        3.53526358      10.83869431      15.75644572  F       45      -0.01914036      -0.02970938       0.00281916
O        9.24484356       0.74344663      15.94429150  F       46      -0.00030093      -0.00290895      -0.02530566
O        3.30515102       4.23779662      15.94429168  F       47      -0.05142260       0.00358017      -0.01759005
O        9.30119327       7.63454631      15.94429132  F       48       0.12475254       0.00789097       0.05101170
O       -1.89390768       7.68105065      15.98554452  F       49       0.05476142      -0.07846297       0.04493232
O        1.57869822       7.13509120      15.98554413  F       50      -0.17670196      -0.06691638       0.19093615
O        0.31520971      10.41543579      15.98554439  F       51      -0.01315628      -0.06719977       0.02667151
In      -1.57901381       3.03754313      16.29163881  F       52      -0.09270431      -0.18006228      -0.05812459
In      -3.86363272      12.46448245      16.29163869  F       53       0.01678582       0.01550952       0.00865759
In      -0.30746998       6.17668715      16.39885574  F       54      -0.02877273       0.16069019       0.07351521
In      -1.78082649       9.79372205      16.39885556  F       55       0.04600299       0.03680827      -0.00155446
In       2.08829635       9.26116873      16.39885555  F       56       0.02784246       0.07683213      -0.08857116
In       5.44264624       9.72955081      16.29163837  F       57       0.07421352      -0.02037609      -0.00560551
In      14.56745775       0.00000023      16.52452729  F       58      -0.01830239      -0.02947581      -0.05195309
In       7.28372884       0.00000046      16.52452727  F       59       0.02617921       0.09515474      -0.03392579
In       3.64186448       6.30789445      16.52452688  F       60       0.10901882      -0.07061662      -0.04002010
In      -3.64186467       6.30789479      16.52452729  F       61      -0.21653284       0.00022571       0.17746338
In       9.06455585       2.82206686      16.65019864  F       62      -0.00385230       0.19578505       0.11273439
In       1.84108280       2.88623741      16.75741682  F       63       0.06338115      -0.00703878      -0.00434312
In       5.19543306       3.35462016      16.65019954  F       64       0.06730743       0.03895196      -0.01954779
In      11.14736129       0.15130547      16.75741597  F       65       0.02590023      -0.03534047      -0.26105684
In       7.59119877       6.43910216      16.65019924  F       66       0.06817266      -0.11981452       0.18599659
In       8.86274257       9.57824538      16.75741545  F       67      -0.07160570      -0.01170043      -0.10174628
O        9.17763668       4.93473784      17.06350958  F       68       0.32351479       0.19434831       0.40463367
O        6.96851909       2.20035367      17.06350993  F       69      -0.03195123       0.04127559      -0.03923919
O        5.70503103       5.48069763      17.06350990  F       70      -0.25985283      -0.06644906      -0.15926170
O       -2.01746347       4.98124236      17.10476289  F       71       0.18588859      -0.09392309      -0.12042630
O       -1.96111486      11.87234229      17.10476307  F       72      -0.01043044      -0.06836221       0.05288377
O        3.97857827       8.37799246      17.10476382  F       73      -0.04068583       0.01092609       0.05224921
O        6.94850543       8.48097521      17.29260816  F       74      -0.07628053       0.18692639      -0.09543213
O       11.15421650       2.35771879      17.29260829  F       75      -0.00239159      -0.23200218      -0.27446511
O        3.74846506       1.77709453      17.29260778  F       76      -0.02287737       0.00905746       0.02821495
O       -0.04640858       1.97058198      17.55952389  F       77      -0.01718345       0.04756737      -0.02810358
O       -5.55395094      11.67068958      17.55952349  F       78      -0.04604676       0.03577399      -0.07629089
O        5.60035973      11.59030666      17.55952404  F       79       0.02861524      -0.02842937      -0.00781533
O       -1.60128522       9.40412990      18.49262642  T       80      -0.00642146       0.00697723      -0.01876995
O        1.69259519       9.32695984      18.48473223  T       81       0.00826735       0.00346985      -0.00800347
O       -0.16293742       6.53175174      18.55732197  T       82      -0.00131015      -0.00729998      -0.01119542
O        3.35493396       6.09483962      18.69233829  T       83       0.00030287       0.01041353      -0.00702799
O       -3.55164510       6.68203548      18.73832183  T       84      -0.00565642      -0.00544706      -0.00506492
O        0.33071145      12.51721997      18.68131418  T       85       0.00420097       0.00493342       0.00393276
O        9.19517569       9.11392248      18.95651847  T       86       0.00621186      -0.01420528       0.00321114
O        2.06416728       3.42076047      18.96609185  T       87      -0.00588396      -0.00062436       0.00385286
O       10.58332605       0.04592010      18.94935717  T       88       0.01058885       0.01056167      -0.00483280
O        8.82062674       2.88391383      19.27143113  T       89       0.01593214      -0.00030342       0.01391989
O        5.32205113       3.53095134      19.24789448  T       90       0.00072399      -0.00425583      -0.00513124
O        7.63829374       6.26159628      19.10209360  T       91      -0.00736925      -0.00082645       0.00502461
In      -1.86403256       5.37079907      19.39484086  T       92       0.01572558       0.01813801      -0.00190475
In      -1.53490690      11.46690885      19.48122403  T       93       0.00224042      -0.00520235       0.00758892
In       6.94147340       1.96526259      19.22576495  T       94      -0.00019412      -0.00764693      -0.01304295
In       3.40238066       8.24552216      19.48941778  T       95       0.00410071      -0.01926572       0.01187096
In       5.49298891       5.63364142      19.20893081  T       96      -0.00202261       0.00283882      -0.00023153
In       9.40331167       5.09080450      19.32836836  T       97       0.00811531      -0.01011926       0.00756237
In       0.04960461       8.49550661      19.76136578  T       98      -0.00012353      -0.00750917      -0.00263807
In       3.62345437       1.98637808      19.46211677  T       99       0.00390267      -0.00572787       0.00513309
In      11.00859093       2.05563079      19.43676766  T      100      -0.01403133      -0.00267812      -0.01234733
In       7.18304802       8.46145883      19.45492430  T      101      -0.00304869      -0.00245772      -0.00125325
In      -5.47721115      11.35721634      19.69107864  T      102      -0.01861440       0.00426912       0.00064945
In      -3.35005134       8.68421109      19.55296188  T      103      -0.00987659       0.01290461       0.00969821
In       0.19961012       2.20508928      19.69714988  T      104      -0.00078609      -0.00186425       0.00951292
In       1.47511467       5.45282632      19.59427490  T      105      -0.00580364      -0.00174801       0.00384767
In       1.84568865      11.20554684      19.59090727  T      106      -0.02080383      -0.00415563       0.00993010
In       5.28341406      11.64227563      19.70362408  T      107      -0.00105390      -0.00323375       0.00147365
O        1.84569089       0.86745556      20.15157848  T      108       0.00314069       0.00372238      -0.00273806
O        7.11502808      10.56176010      20.14734671  T      109      -0.01219020      -0.00116242       0.00218546
O       12.91222494       1.13233589      20.13647887  T      110      -0.00695865      -0.00372463       0.00184321
O        5.37470548       7.55344160      20.10903646  T      111       0.00485684      -0.00051698       0.00715649
O       11.17877145       4.03152849      19.85496139  T      112      -0.01684855       0.01170596      -0.00031817
O        5.32824050       0.89780185      20.09576591  T      113      -0.00091879      -0.01507923      -0.00692070
O       -0.22918923       4.23856714      20.23614038  T      114       0.00779641       0.00243352      -0.00685757
O       -3.49792650      10.77246711      20.14988637  T      115       0.00864010      -0.01288101      -0.00289226
O        3.73314421      10.27786463      20.24050420  T      116      -0.00744036      -0.00573176       0.00473386
O       -1.78546861       8.14915151      20.91492154  T      117      -0.01515522      -0.00533825       0.02305722
O        0.11783765      10.51647351      20.60659455  T      118       0.00354543       0.01064642      -0.01473820
O        1.70486673       7.33863732      20.60046774  T      119      -0.00161275      -0.01771072       0.00988370
O       11.85224956       5.85441048      21.72236735  T        0       0.00299728       0.00529076       0.00496922
O        9.57957514       5.78889386      21.47605264  T        0       0.00553417      -0.02288587      -0.00292274
C       10.54064233       5.38105584      23.62533657  T        0      -0.00557300       0.00378726       0.00300006
C       10.66676346       5.69094678      22.14595784  T        0       0.00402194      -0.00947386       0.00065994
H       11.20176744       4.54089988      23.87260625  T        0      -0.00802619       0.01147747       0.01609055
H       10.88986800       6.24331467      24.21085626  T        0      -0.00593930      -0.00540116      -0.00251389
H        9.50418741       5.14685929      23.88489833  T        0      -0.00350457       0.00151874       0.00290752
H       12.58721583       7.37620576      21.49617845  T        0      -0.01009146       0.02048598      -0.01682690
