128
Lattice="14.567458257780915 0.0 0.0 -7.283729128890462 12.615788919807672 0.0 0.0 0.0 33.04905420593702" Properties=species:S:1:pos:R:3:move_mask:L:1:spacegroup_kinds:I:1:forces:R:3 spacegroup="P 1" unit_cell=conventional occupancy="_JSON {\"0\": {\"O\": 1.0}, \"1\": {\"O\": 1.0}, \"2\": {\"O\": 1.0}, \"3\": {\"O\": 1.0}, \"4\": {\"O\": 1.0}, \"5\": {\"O\": 1.0}, \"6\": {\"O\": 1.0}, \"7\": {\"O\": 1.0}, \"8\": {\"O\": 1.0}, \"9\": {\"O\": 1.0}, \"10\": {\"O\": 1.0}, \"11\": {\"O\": 1.0}, \"12\": {\"In\": 1.0}, \"13\": {\"In\": 1.0}, \"14\": {\"In\": 1.0}, \"15\": {\"In\": 1.0}, \"16\": {\"In\": 1.0}, \"17\": {\"In\": 1.0}, \"18\": {\"In\": 1.0}, \"19\": {\"In\": 1.0}, \"20\": {\"In\": 1.0}, \"21\": {\"In\": 1.0}, \"22\": {\"In\": 1.0}, \"23\": {\"In\": 1.0}, \"24\": {\"In\": 1.0}, \"25\": {\"In\": 1.0}, \"26\": {\"In\": 1.0}, \"27\": {\"In\": 1.0}, \"28\": {\"O\": 1.0}, \"29\": {\"O\": 1.0}, \"30\": {\"O\": 1.0}, \"31\": {\"O\": 1.0}, \"32\": {\"O\": 1.0}, \"33\": {\"O\": 1.0}, \"34\": {\"O\": 1.0}, \"35\": {\"O\": 1.0}, \"36\": {\"O\": 1.0}, \"37\": {\"O\": 1.0}, \"38\": {\"O\": 1.0}, \"39\": {\"O\": 1.0}, \"40\": {\"O\": 1.0}, \"41\": {\"O\": 1.0}, \"42\": {\"O\": 1.0}, \"43\": {\"O\": 1.0}, \"44\": {\"O\": 1.0}, \"45\": {\"O\": 1.0}, \"46\": {\"O\": 1.0}, \"47\": {\"O\": 1.0}, \"48\": {\"O\": 1.0}, \"49\": {\"O\": 1.0}, \"50\": {\"O\": 1.0}, \"51\": {\"O\": 1.0}, \"52\": {\"In\": 1.0}, \"53\": {\"In\": 1.0}, \"54\": {\"In\": 1.0}, \"55\": {\"In\": 1.0}, \"56\": {\"In\": 1.0}, \"57\": {\"In\": 1.0}, \"58\": {\"In\": 1.0}, \"59\": {\"In\": 1.0}, \"60\": {\"In\": 1.0}, \"61\": {\"In\": 1.0}, \"62\": {\"In\": 1.0}, \"63\": {\"In\": 1.0}, \"64\": {\"In\": 1.0}, \"65\": {\"In\": 1.0}, \"66\": {\"In\": 1.0}, \"67\": {\"In\": 1.0}, \"68\": {\"O\": 1.0}, \"69\": {\"O\": 1.0}, \"70\": {\"O\": 1.0}, \"71\": {\"O\": 1.0}, \"72\": {\"O\": 1.0}, \"73\": {\"O\": 1.0}, \"74\": {\"O\": 1.0}, \"75\": {\"O\": 1.0}, \"76\": {\"O\": 1.0}, \"77\": {\"O\": 1.0}, \"78\": {\"O\": 1.0}, \"79\": {\"O\": 1.0}, \"80\": {\"O\": 1.0}, \"81\": {\"O\": 1.0}, \"82\": {\"O\": 1.0}, \"83\": {\"O\": 1.0}, \"84\": {\"O\": 1.0}, \"85\": {\"O\": 1.0}, \"86\": {\"O\": 1.0}, \"87\": {\"O\": 1.0}, \"88\": {\"O\": 1.0}, \"89\": {\"O\": 1.0}, \"90\": {\"O\": 1.0}, \"91\": {\"O\": 1.0}, \"92\": {\"In\": 1.0}, \"93\": {\"In\": 1.0}, \"94\": {\"In\": 1.0}, \"95\": {\"In\": 1.0}, \"96\": {\"In\": 1.0}, \"97\": {\"In\": 1.0}, \"98\": {\"In\": 1.0}, \"99\": {\"In\": 1.0}, \"100\": {\"In\": 1.0}, \"101\": {\"In\": 1.0}, \"102\": {\"In\": 1.0}, \"103\": {\"In\": 1.0}, \"104\": {\"In\": 1.0}, \"105\": {\"In\": 1.0}, \"106\": {\"In\": 1.0}, \"107\": {\"In\": 1.0}, \"108\": {\"O\": 1.0}, \"109\": {\"O\": 1.0}, \"110\": {\"O\": 1.0}, \"111\": {\"O\": 1.0}, \"112\": {\"O\": 1.0}, \"113\": {\"O\": 1.0}, \"114\": {\"O\": 1.0}, \"115\": {\"O\": 1.0}, \"116\": {\"O\": 1.0}, \"117\": {\"O\": 1.0}, \"118\": {\"O\": 1.0}, \"119\": {\"O\": 1.0}}" energy=-707.5673217773438 free_energy=-707.5673217773438 stress="0.007624483201652765 -3.227221895940602e-05 -0.00012495940609369427 -3.227221895940602e-05 0.007793548982590437 4.184927820460871e-05 -0.00012495940609369427 4.184927820460871e-05 1.1222443390579429e-05" pbc="T T T"
O        5.56112551       5.29730098      12.44442493  F        0      -0.01151307       0.01606515      -0.00666618
O        7.19929797       2.16742567      12.44442488  F        1      -0.01460213      -0.01738644      -0.00727224
O        9.09076378       5.15106294      12.44442506  F        2       0.00730070       0.02187505      -0.00775218
O        3.56236441       2.32744963      12.81467041  F        3      -0.01205164      -0.02522581      -0.00951284
O       10.77064547       1.92137361      12.81467059  F        4       0.02363339       0.00065759      -0.03099781
O        7.51817736       8.36696557      12.81467060  F        5      -0.00094033       0.01252985      -0.01464069
O       -3.86713652       8.43746206      12.95843886  F        6       0.02916996       0.01855642       0.02050698
O        1.91024068       5.04801920      12.95843918  F        7      -0.00933129       0.02649694       0.01122475
O        1.95689587      11.74609578      12.95843921  F        8      -0.02467376      -0.04254381       0.00239867
O       -5.62751792      11.43742505      12.90107995  F        9       0.03063922       0.00915052       0.00815439
O        0.19238766       2.02350350      12.90107932  F       10       0.00161870       0.00256484      -0.00972104
O        5.43512990      11.77064967      12.90107909  F       11       0.01456220      -0.03838266      -0.01330328
In       2.02827288       0.93415595      13.34696164  F       12      -0.01217952       0.02504567       0.01197217
In       5.45297263       1.43044201      13.46548669  F       13       0.03837526       0.04947976      -0.00793731
In       5.79604177       7.17815473      13.46548635  F       14       0.00700098      -0.01099431      -0.00810964
In       7.07859496      10.39217548      13.34696140  F       15      -0.01399717      -0.00584598       0.01850528
In      10.60217256       4.00719198      13.46548647  F       16      -0.01891818      -0.02049148       0.01991221
In      12.74431985       1.28945811      13.34696112  F       17      -0.02682167       0.00602582       0.07726058
In      -3.76992867      10.45841758      13.58493911  F       18      -0.01787872      -0.00032160      -0.06696703
In       0.11143913       4.12172609      13.58493797  F       19      -0.02490496      -0.02393941       0.01950108
In       7.28372934       4.20526284      13.28077194  F       20       0.02281326      -0.03138523       0.03787223
In       3.65848992      10.65143468      13.58493907  F       21       0.00903650       0.02514739       0.03012119
In      -2.12514371       7.57248039      13.82744761  F       22      -0.05207008      -0.03121096      -0.05984007
In       1.78834112       6.98912009      13.82744861  F       23       0.01943755      -0.03816305      -0.04595020
In       3.89762555       4.37439996      13.55369945  F       24       0.03394063      -0.02227831       0.01502045
In       0.33680320      10.66997741      13.82744770  F       25       0.05466115       0.06284678      -0.06644866
In       8.83030441       1.18824328      13.55369950  F       26       0.02394123       0.04108413       0.06950725
In       9.12325787       7.05314622      13.55369981  F       27      -0.01933019      -0.03763143       0.00799732
O        1.94314284       9.09920259      13.79983277  F       28      -0.02506916       0.00535029       0.02821064
O       -0.37515974       6.38337672      13.79983300  F       29       0.01198074       0.02231085       0.01919359
O       -1.56798334       9.74899853      13.79983313  F       30      -0.01669282      -0.00179558       0.05833361
O       -1.90665604       3.49451490      14.07374983  F       31       0.02876595       0.03118074      -0.06153370
O       -3.30406258      12.51974383      14.07375025  F       32       0.01887518      -0.03329280       0.05720464
O        5.21071859       9.21731872      14.07374980  F       33      -0.00132766      -0.01736417      -0.01127009
O        6.95268262       0.11029125      14.35625235  F       34      -0.06517318      -0.07351691       0.02691012
O        3.90290295       6.53944318      14.35625252  F       35      -0.01527393       0.01472086       0.01161450
O       10.99560128       5.96605484      14.35625280  F       36       0.03365564       0.04972476      -0.01558222
O        5.60077915       3.29585311      14.56420047  F       37      -0.04430582       0.02945861      -0.06119275
O        8.91277589       3.20249084      14.56420075  F       38      -0.02666878       0.01214993      -0.12043983
O        7.33763173       6.11744518      14.56420087  F       39       0.00568716       0.02865715      -0.02512187
O        1.68336921       1.02548187      15.48953070  F       40       0.02081511      -0.02465571      -0.01336883
O       12.83768043       0.94510034      15.48953027  F       41       0.09463660      -0.05098152      -0.10876000
O        7.33013789      10.64520717      15.48953039  F       42       0.04386246      -0.04380551      -0.01714472
O       -3.87048772      10.25806959      15.75644575  F       43       0.14084284       0.00128230       0.08368330
O        0.33522381       4.13481358      15.75644581  F       44      -0.00257096       0.04576176      -0.00242989
O        3.53526358      10.83869431      15.75644572  F       45      -0.07242465      -0.12416531      -0.01809760
O        9.24484356       0.74344663      15.94429150  F       46      -0.17269585      -0.17493701      -0.07877119
O        3.30515102       4.23779662      15.94429168  F       47      -0.00691292       0.02533386       0.00347446
O        9.30119327       7.63454631      15.94429132  F       48       0.02046123       0.11079669      -0.02266590
O       -1.89390768       7.68105065      15.98554452  F       49       0.04547408       0.14598662       0.13404520
O        1.57869822       7.13509120      15.98554413  F       50      -0.02610579       0.11290091       0.09148055
O        0.31520971      10.41543579      15.98554439  F       51      -0.08663328      -0.03215516       0.06805866
In      -1.57901381       3.03754313      16.29163881  F       52      -0.26634127      -0.15719551       0.16030870
In      -3.86363272      12.46448245      16.29163869  F       53      -0.19342129       0.16608816      -0.08430982
In      -0.30746998       6.17668715      16.39885574  F       54      -0.03744001      -0.14883408      -0.16486466
In      -1.78082649       9.79372205      16.39885556  F       55       0.05845876      -0.14499576      -0.26035503
In       2.08829635       9.26116873      16.39885555  F       56       0.05106315       0.05011677       0.02987371
In       5.44264624       9.72955081      16.29163837  F       57       0.03911494       0.10047325       0.00142003
In      14.56745775       0.00000023      16.52452729  F       58      -0.11153531       0.03446320      -0.00613538
In       7.28372884       0.00000046      16.52452727  F       59       0.25626692       0.41950279       0.10482816
In       3.64186448       6.30789445      16.52452688  F       60       0.04708363      -0.07955692       0.00890368
In      -3.64186467       6.30789479      16.52452729  F       61      -0.14787227      -0.14869720      -0.02054790
In       9.06455585       2.82206686      16.65019864  F       62       0.03353200      -0.02442950       0.37058371
In       1.84108280       2.88623741      16.75741682  F       63      -0.05922165      -0.01711301      -0.04846450
In       5.19543306       3.35462016      16.65019954  F       64       0.23704027      -0.15052293       0.12798233
In      11.14736129       0.15130547      16.75741597  F       65       0.08843843       0.26020229      -0.24038100
In       7.59119877       6.43910216      16.65019924  F       66       0.08452330      -0.14004032      -0.02338476
In       8.86274257       9.57824538      16.75741545  F       67      -0.06981482      -0.03136951      -0.01173951
O        9.17763668       4.93473784      17.06350958  F       68       0.05348416       0.58986616      -0.32680678
O        6.96851909       2.20035367      17.06350993  F       69      -0.28842914      -0.38652921       0.29245260
O        5.70503103       5.48069763      17.06350990  F       70      -0.06136134       0.06262542       0.01752274
O       -2.01746347       4.98124236      17.10476289  F       71       0.05459075       0.10124490       0.06861429
O       -1.96111486      11.87234229      17.10476307  F       72      -0.11459229      -0.12116274      -0.03330003
O        3.97857827       8.37799246      17.10476382  F       73      -0.20272742       0.08473931       0.16557135
O        6.94850543       8.48097521      17.29260816  F       74       0.00898284      -0.00346711       0.02535170
O       11.15421650       2.35771879      17.29260829  F       75       0.22088736      -0.04350793       0.10914251
O        3.74846506       1.77709453      17.29260778  F       76      -0.12215579      -0.04382804      -0.11002819
O       -0.04640858       1.97058198      17.55952389  F       77       0.07321049       0.01036376      -0.05467287
O       -5.55395094      11.67068958      17.55952349  F       78       0.08793368      -0.04569047      -0.00885598
O        5.60035973      11.59030666      17.55952404  F       79       0.21554810      -0.16589314      -0.10457554
O       -1.57475209       9.44918376      18.51111216  T       80       0.00588768      -0.00126699       0.00357118
O        1.64003489       9.36851255      18.51754736  T       81      -0.00765017      -0.00980389       0.00956622
O       -0.05026330       6.46553329      18.47818115  T       82      -0.00604835       0.00382298       0.00151736
O        3.36770130       6.09414051      18.69898079  T       83      -0.00254804       0.00159833      -0.00166488
O       -3.69192446       6.65505834      18.69383356  T       84       0.00605330       0.00318483       0.01173159
O        0.28422493      12.41567065      18.74103912  T       85       0.00064346       0.00831193       0.00206988
O        9.20449793       9.12143320      18.97740822  T       86       0.00171521      -0.00491571       0.00409183
O        2.05229085       3.41143346      18.97063642  T       87       0.00061667      -0.00532067      -0.00018598
O       10.62725062       0.04381762      18.86928571  T       88      -0.00143307      -0.00652307       0.00196943
O        8.87500645       2.90388287      18.99310868  T       89      -0.00132927      -0.00325392      -0.00179094
O        5.32937389       3.52004940      19.24053910  T       90       0.01064786       0.00436288       0.00339824
O        7.66107328       6.24038995      19.25923276  T       91       0.00114313      -0.00142294       0.00651103
In      -1.86594370       5.51246504      19.49302926  T       92      -0.00688684       0.00252053      -0.00192070
In      -1.66927492      11.50024018      19.35545143  T       93      -0.00570218       0.00398100       0.00185807
In       6.98737473       1.97260675      19.33631364  T       94       0.01453752       0.00183795      -0.00499095
In       3.38957495       8.24661505      19.50193136  T       95      -0.00727315       0.00511168      -0.00089426
In       5.49334914       5.62402857      19.22163319  T       96       0.00122187      -0.01198181      -0.00118212
In       9.40852871       5.03044966      19.20156169  T       97       0.01529773      -0.00461306       0.00928321
In       0.00451557       8.32493527      19.67524945  T       98       0.00648713      -0.01880348       0.00739835
In       3.59981858       2.00025169      19.45100712  T       99      -0.01454253      -0.00322446       0.00489606
In      10.92734184       2.10335492      19.54236332  T      100       0.00549230       0.00415314       0.00006435
In       7.18000924       8.48279612      19.46235483  T      101      -0.00054853      -0.00288620      -0.00669773
In      -5.48047651      11.33387723      19.69883919  T      102      -0.00531580       0.00679638      -0.00821194
In      -3.31921731       8.59644327      19.59232974  T      103      -0.01054087      -0.01123399       0.00021553
In       0.15742484       2.21454508      19.69916937  T      104       0.00082317      -0.00565496       0.00158729
In       1.49165269       5.41918858      19.60295259  T      105      -0.00094653      -0.00509057      -0.00453293
In       1.90100300      11.27116523      19.57350282  T      106       0.00808775       0.00140441      -0.00821612
In       5.26073934      11.68638536      19.69115853  T      107       0.00994081       0.01476349      -0.00404380
O        1.82343078       0.85307890      20.13257003  T      108       0.00710179      -0.00677626      -0.00257564
O        7.08700867      10.57876680      20.14442946  T      109       0.00781492      -0.00413976       0.00826085
O       12.87251621       1.17541589      20.12418904  T      110      -0.00147191      -0.00118783      -0.00903624
O        5.36795343       7.56759868      20.08553868  T      111      -0.00015044       0.00788433       0.00187057
O       11.11676968       4.16916439      20.12991722  T      112       0.00791557      -0.00258851      -0.01364481
O        5.26414230       0.86746900      19.99934657  T      113       0.00364700      -0.01079474       0.00962088
O       -0.24353156       4.24804102      20.25118900  T      114       0.00209769       0.00653046      -0.00173056
O       -3.48598230      10.68731690      20.22810308  T      115       0.01186343       0.00069781       0.00535363
O        3.70311023      10.29272773      20.27263331  T      116      -0.00219154      -0.00129592      -0.00581521
O       -1.78445788       7.46890643      20.59117000  T      117       0.00441438       0.01000829      -0.00420439
O        0.10136083      10.44217155      20.70596002  T      118       0.00542178      -0.00280964       0.00033557
O        1.70973043       7.32861123      20.60769638  T      119      -0.01453453       0.00350671      -0.00784945
O        9.65654955       1.14182428      21.30876171  T        0       0.00711733      -0.01315549      -0.01107630
O        7.59260708       2.08048675      21.51209141  T        0      -0.00453275      -0.02296098      -0.00004598
C        8.96743272       1.96226349      23.44054861  T        0       0.01445079      -0.00220554       0.00360821
C        8.71779926       1.70694563      21.97064741  T        0       0.00569971       0.00948200       0.02282608
H        9.56424395       1.14762669      23.86748520  T        0       0.00667066       0.00104621      -0.00312752
H        9.55350219       2.88758614      23.54480675  T        0       0.00534425      -0.00928042      -0.01869474
H        8.01954374       2.08411304      23.97444872  T        0       0.01860768       0.00504438      -0.00705165
H        7.35064703      -2.19789734      21.67918253  T        0       0.00151813       0.00961754       0.00278115
