128
Lattice="14.567458257780915 0.0 0.0 -7.283729128890462 12.615788919807672 0.0 0.0 0.0 33.04905420593702" Properties=species:S:1:pos:R:3:move_mask:L:1:spacegroup_kinds:I:1:forces:R:3 spacegroup="P 1" unit_cell=conventional occupancy="_JSON {\"0\": {\"O\": 1.0}, \"1\": {\"O\": 1.0}, \"2\": {\"O\": 1.0}, \"3\": {\"O\": 1.0}, \"4\": {\"O\": 1.0}, \"5\": {\"O\": 1.0}, \"6\": {\"O\": 1.0}, \"7\": {\"O\": 1.0}, \"8\": {\"O\": 1.0}, \"9\": {\"O\": 1.0}, \"10\": {\"O\": 1.0}, \"11\": {\"O\": 1.0}, \"12\": {\"In\": 1.0}, \"13\": {\"In\": 1.0}, \"14\": {\"In\": 1.0}, \"15\": {\"In\": 1.0}, \"16\": {\"In\": 1.0}, \"17\": {\"In\": 1.0}, \"18\": {\"In\": 1.0}, \"19\": {\"In\": 1.0}, \"20\": {\"In\": 1.0}, \"21\": {\"In\": 1.0}, \"22\": {\"In\": 1.0}, \"23\": {\"In\": 1.0}, \"24\": {\"In\": 1.0}, \"25\": {\"In\": 1.0}, \"26\": {\"In\": 1.0}, \"27\": {\"In\": 1.0}, \"28\": {\"O\": 1.0}, \"29\": {\"O\": 1.0}, \"30\": {\"O\": 1.0}, \"31\": {\"O\": 1.0}, \"32\": {\"O\": 1.0}, \"33\": {\"O\": 1.0}, \"34\": {\"O\": 1.0}, \"35\": {\"O\": 1.0}, \"36\": {\"O\": 1.0}, \"37\": {\"O\": 1.0}, \"38\": {\"O\": 1.0}, \"39\": {\"O\": 1.0}, \"40\": {\"O\": 1.0}, \"41\": {\"O\": 1.0}, \"42\": {\"O\": 1.0}, \"43\": {\"O\": 1.0}, \"44\": {\"O\": 1.0}, \"45\": {\"O\": 1.0}, \"46\": {\"O\": 1.0}, \"47\": {\"O\": 1.0}, \"48\": {\"O\": 1.0}, \"49\": {\"O\": 1.0}, \"50\": {\"O\": 1.0}, \"51\": {\"O\": 1.0}, \"52\": {\"In\": 1.0}, \"53\": {\"In\": 1.0}, \"54\": {\"In\": 1.0}, \"55\": {\"In\": 1.0}, \"56\": {\"In\": 1.0}, \"57\": {\"In\": 1.0}, \"58\": {\"In\": 1.0}, \"59\": {\"In\": 1.0}, \"60\": {\"In\": 1.0}, \"61\": {\"In\": 1.0}, \"62\": {\"In\": 1.0}, \"63\": {\"In\": 1.0}, \"64\": {\"In\": 1.0}, \"65\": {\"In\": 1.0}, \"66\": {\"In\": 1.0}, \"67\": {\"In\": 1.0}, \"68\": {\"O\": 1.0}, \"69\": {\"O\": 1.0}, \"70\": {\"O\": 1.0}, \"71\": {\"O\": 1.0}, \"72\": {\"O\": 1.0}, \"73\": {\"O\": 1.0}, \"74\": {\"O\": 1.0}, \"75\": {\"O\": 1.0}, \"76\": {\"O\": 1.0}, \"77\": {\"O\": 1.0}, \"78\": {\"O\": 1.0}, \"79\": {\"O\": 1.0}, \"80\": {\"O\": 1.0}, \"81\": {\"O\": 1.0}, \"82\": {\"O\": 1.0}, \"83\": {\"O\": 1.0}, \"84\": {\"O\": 1.0}, \"85\": {\"O\": 1.0}, \"86\": {\"O\": 1.0}, \"87\": {\"O\": 1.0}, \"88\": {\"O\": 1.0}, \"89\": {\"O\": 1.0}, \"90\": {\"O\": 1.0}, \"91\": {\"O\": 1.0}, \"92\": {\"In\": 1.0}, \"93\": {\"In\": 1.0}, \"94\": {\"In\": 1.0}, \"95\": {\"In\": 1.0}, \"96\": {\"In\": 1.0}, \"97\": {\"In\": 1.0}, \"98\": {\"In\": 1.0}, \"99\": {\"In\": 1.0}, \"100\": {\"In\": 1.0}, \"101\": {\"In\": 1.0}, \"102\": {\"In\": 1.0}, \"103\": {\"In\": 1.0}, \"104\": {\"In\": 1.0}, \"105\": {\"In\": 1.0}, \"106\": {\"In\": 1.0}, \"107\": {\"In\": 1.0}, \"108\": {\"O\": 1.0}, \"109\": {\"O\": 1.0}, \"110\": {\"O\": 1.0}, \"111\": {\"O\": 1.0}, \"112\": {\"O\": 1.0}, \"113\": {\"O\": 1.0}, \"114\": {\"O\": 1.0}, \"115\": {\"O\": 1.0}, \"116\": {\"O\": 1.0}, \"117\": {\"O\": 1.0}, \"118\": {\"O\": 1.0}, \"119\": {\"O\": 1.0}}" energy=-706.3809814453125 free_energy=-706.3809814453125 stress="0.007010509259998798 -0.0002125112368958071 2.1005011149100028e-05 -0.0002125112368958071 0.007112501189112663 -0.00012563244672492146 2.1005011149100028e-05 -0.00012563244672492146 6.497668800875545e-05" pbc="T T T"
O        5.56112551       5.29730098      12.44442493  F        0      -0.00592555       0.00373037       0.00801790
O        7.19929797       2.16742567      12.44442488  F        1       0.00263825      -0.00134727       0.00831819
O        9.09076378       5.15106294      12.44442506  F        2       0.01085287      -0.00028025       0.01250565
O        3.56236441       2.32744963      12.81467041  F        3       0.00763613       0.00724583      -0.00778532
O       10.77064547       1.92137361      12.81467059  F        4       0.00204198       0.01027462       0.00023967
O        7.51817736       8.36696557      12.81467060  F        5      -0.00564422      -0.00767434      -0.01151133
O       -3.86713652       8.43746206      12.95843886  F        6       0.02601461      -0.02432372       0.01242256
O        1.91024068       5.04801920      12.95843918  F        7      -0.01001835       0.02651258       0.02814376
O        1.95689587      11.74609578      12.95843921  F        8      -0.01545966      -0.01566799       0.01025122
O       -5.62751792      11.43742505      12.90107995  F        9       0.01954277       0.01334183      -0.01465982
O        0.19238766       2.02350350      12.90107932  F       10      -0.03411752       0.02406323       0.00035667
O        5.43512990      11.77064967      12.90107909  F       11      -0.00599710      -0.01727065      -0.00097746
In       2.02827288       0.93415595      13.34696164  F       12       0.00316805      -0.00731385       0.06588592
In       5.45297263       1.43044201      13.46548669  F       13      -0.00935929      -0.01928707      -0.02132396
In       5.79604177       7.17815473      13.46548635  F       14       0.00337248       0.01107557      -0.02845496
In       7.07859496      10.39217548      13.34696140  F       15       0.01532615       0.00340100       0.07071476
In      10.60217256       4.00719198      13.46548647  F       16      -0.01373105      -0.00371893      -0.05039188
In      12.74431985       1.28945811      13.34696112  F       17      -0.00028504      -0.02143385       0.02585270
In      -3.76992867      10.45841758      13.58493911  F       18      -0.01991949       0.00996057       0.05490108
In       0.11143913       4.12172609      13.58493797  F       19       0.01387438      -0.02384727      -0.02303052
In       7.28372934       4.20526284      13.28077194  F       20      -0.00705029       0.00559652      -0.01636545
In       3.65848992      10.65143468      13.58493907  F       21       0.01817616       0.00486168       0.00751939
In      -2.12514371       7.57248039      13.82744761  F       22      -0.04026204       0.03226203      -0.06619310
In       1.78834112       6.98912009      13.82744861  F       23       0.02327295      -0.02652214      -0.07063764
In       3.89762555       4.37439996      13.55369945  F       24       0.01737049      -0.01519357      -0.04112787
In       0.33680320      10.66997741      13.82744770  F       25       0.01751290       0.02700220      -0.01406887
In       8.83030441       1.18824328      13.55369950  F       26      -0.00459484       0.00153927      -0.01047799
In       9.12325787       7.05314622      13.55369981  F       27      -0.02736078       0.01223309      -0.01398309
O        1.94314284       9.09920259      13.79983277  F       28      -0.00885721      -0.00483340       0.01673001
O       -0.37515974       6.38337672      13.79983300  F       29       0.01371157      -0.00722635       0.03879285
O       -1.56798334       9.74899853      13.79983313  F       30       0.00327909      -0.03254767       0.00439608
O       -1.90665604       3.49451490      14.07374983  F       31      -0.01101517       0.02956408       0.04576604
O       -3.30406258      12.51974383      14.07375025  F       32       0.02466327       0.01002601      -0.02276976
O        5.21071859       9.21731872      14.07374980  F       33      -0.02453455      -0.02186969      -0.02237929
O        6.95268262       0.11029125      14.35625235  F       34       0.00436500       0.00186801       0.00535113
O        3.90290295       6.53944318      14.35625252  F       35      -0.02428569      -0.00190294       0.03077863
O       10.99560128       5.96605484      14.35625280  F       36       0.02362755      -0.01481646       0.04761247
O        5.60077915       3.29585311      14.56420047  F       37      -0.00465810       0.03110844       0.03230208
O        8.91277589       3.20249084      14.56420075  F       38       0.00028817      -0.00656335       0.03071320
O        7.33763173       6.11744518      14.56420087  F       39       0.02518505      -0.01374302       0.01554811
O        1.68336921       1.02548187      15.48953070  F       40       0.03704235       0.10343512      -0.07796614
O       12.83768043       0.94510034      15.48953027  F       41      -0.03826322       0.05968855      -0.01401559
O        7.33013789      10.64520717      15.48953039  F       42      -0.09533343      -0.05471330      -0.11229901
O       -3.87048772      10.25806959      15.75644575  F       43       0.13890377      -0.08521119      -0.08269104
O        0.33522381       4.13481358      15.75644581  F       44      -0.03488511       0.05370735       0.02230459
O        3.53526358      10.83869431      15.75644572  F       45      -0.06238282      -0.03943528      -0.01109173
O        9.24484356       0.74344663      15.94429150  F       46       0.02108529       0.03759000       0.00029740
O        3.30515102       4.23779662      15.94429168  F       47      -0.08819318       0.01513624       0.10940786
O        9.30119327       7.63454631      15.94429132  F       48       0.02378364      -0.03054658       0.02667132
O       -1.89390768       7.68105065      15.98554452  F       49       0.09586087      -0.13056803       0.10966947
O        1.57869822       7.13509120      15.98554413  F       50      -0.10838932      -0.03178234       0.14714500
O        0.31520971      10.41543579      15.98554439  F       51       0.02592547      -0.04797029       0.01419696
In      -1.57901381       3.03754313      16.29163881  F       52       0.10024476      -0.18728894      -0.04158791
In      -3.86363272      12.46448245      16.29163869  F       53      -0.23265803      -0.06798546       0.22543342
In      -0.30746998       6.17668715      16.39885574  F       54       0.12129496      -0.04984844      -0.19848183
In      -1.78082649       9.79372205      16.39885556  F       55      -0.03515566       0.09133368       0.00552440
In       2.08829635       9.26116873      16.39885555  F       56      -0.00193649       0.04726963       0.00472464
In       5.44264624       9.72955081      16.29163837  F       57       0.09565654       0.07697499      -0.00652280
In      14.56745775       0.00000023      16.52452729  F       58       0.20683308      -0.12098757       0.18207890
In       7.28372884       0.00000046      16.52452727  F       59      -0.01782645      -0.04267177      -0.06753188
In       3.64186448       6.30789445      16.52452688  F       60       0.08091048       0.02434883      -0.15312558
In      -3.64186467       6.30789479      16.52452729  F       61      -0.17279601       0.09441696      -0.27189353
In       9.06455585       2.82206686      16.65019864  F       62      -0.01808706      -0.02855175      -0.15621814
In       1.84108280       2.88623741      16.75741682  F       63      -0.12485397      -0.19185258       0.11068137
In       5.19543306       3.35462016      16.65019954  F       64       0.04035902      -0.01246203      -0.13047582
In      11.14736129       0.15130547      16.75741597  F       65       0.05148150      -0.09701836      -0.04834302
In       7.59119877       6.43910216      16.65019924  F       66      -0.01379983       0.06379268      -0.09843066
In       8.86274257       9.57824538      16.75741545  F       67      -0.00270306       0.30694053       0.19881916
O        9.17763668       4.93473784      17.06350958  F       68       0.02673457      -0.03482607       0.05763282
O        6.96851909       2.20035367      17.06350993  F       69       0.10451782       0.02453795       0.10303636
O        5.70503103       5.48069763      17.06350990  F       70       0.01905918      -0.00243308       0.01528798
O       -2.01746347       4.98124236      17.10476289  F       71      -0.07438691       0.06800038       0.11471742
O       -1.96111486      11.87234229      17.10476307  F       72       0.04262358      -0.02708194       0.06224504
O        3.97857827       8.37799246      17.10476382  F       73      -0.03012580       0.01792099       0.05463156
O        6.94850543       8.48097521      17.29260816  F       74       0.02665031      -0.14285597      -0.05291504
O       11.15421650       2.35771879      17.29260829  F       75      -0.00381243       0.07089403      -0.04049321
O        3.74846506       1.77709453      17.29260778  F       76       0.13515773       0.40769354      -0.20773350
O       -0.04640858       1.97058198      17.55952389  F       77       0.03929515       0.22538576       0.35471973
O       -5.55395094      11.67068958      17.55952349  F       78      -0.08921264      -0.44197956      -0.06083548
O        5.60035973      11.59030666      17.55952404  F       79      -0.17049539       0.03033537      -0.18822125
O       -1.59636255       9.38481312      18.47998932  T       80      -0.00020679      -0.00362605       0.00934541
O        1.67048752       9.27848644      18.49311161  T       81      -0.00640433       0.00238995      -0.00607121
O       -0.04644068       6.34994796      18.51741033  T       82       0.00897418       0.00843772      -0.00222871
O        3.40662289       6.09101429      18.68720902  T       83       0.01549894       0.00689641      -0.01445300
O       -3.73341911       6.66860706      18.68175476  T       84      -0.00142303      -0.00200562       0.01455356
O        0.33874614      12.48969870      18.68362699  T       85       0.00413045       0.00532630      -0.00151515
O        9.19610159       9.12059522      19.00920509  T       86      -0.00343979      -0.01042634       0.00200993
O        1.98903251       3.44674906      19.04712063  T       87       0.00881998      -0.01457423       0.00309265
O       10.56920824       0.08500820      18.97084329  T       88      -0.00853717      -0.00113967      -0.00736175
O        8.87830679       2.87092342      19.26456061  T       89       0.00875875      -0.00308585      -0.00028455
O        5.35116032       3.52324903      19.23707684  T       90       0.00940981       0.00828832       0.00262320
O        7.66156055       6.22312025      19.25460201  T       91       0.01132187      -0.00275949       0.00462091
In      -1.90564455       5.61960741      19.42875697  T       92      -0.00163240      -0.00062890       0.00260932
In      -1.54883357      11.43444695      19.49559052  T       93       0.00454129      -0.00244955      -0.00240389
In       6.98675065       1.93050174      19.22428433  T       94      -0.00599525      -0.00541000       0.00434448
In       3.40652649       8.25623533      19.48863750  T       95      -0.00202464      -0.01356331       0.00957349
In       5.51312446       5.63250468      19.22229626  T       96       0.00224100      -0.00023402      -0.00270015
In       9.40382867       5.03537189      19.22147147  T       97      -0.00564367       0.01563198      -0.00085561
In       0.00317851       8.42484810      19.79521052  T       98       0.00960458      -0.01143967      -0.00496559
In       3.70713234       2.01529771      19.43654281  T       99      -0.01664222       0.00100194       0.00389509
In      11.06114300       2.14576300      19.44452696  T      100      -0.00275847      -0.00997116       0.01132144
In       7.16895395       8.48764552      19.45742007  T      101      -0.00292147       0.00666889      -0.01168463
In      -5.47280498      11.31199152      19.80769110  T      102       0.00412895      -0.00006790      -0.00611972
In      -3.31561220       8.63483322      19.58416660  T      103      -0.01019007       0.00836404       0.00859281
In       0.29585286       2.02950528      19.79848083  T      104       0.00444095       0.02622727       0.01318930
In       1.57274997       5.45965035      19.59891947  T      105      -0.01442708      -0.00034976       0.00403844
In       1.82052900      11.17363685      19.58570927  T      106      -0.00475633      -0.00534523       0.00706349
In       5.23387659      11.65901228      19.68629626  T      107       0.00321862      -0.00545426      -0.00963804
O        2.03637205       0.80828033      19.72591451  T      108      -0.00969547       0.00114341       0.00527777
O        7.03403445      10.54905779      20.04214410  T      109       0.00199224      -0.00399215      -0.00540319
O       12.89635823       1.16762501      20.07869297  T      110       0.00914053       0.00028269      -0.01851445
O        5.37157509       7.55549013      20.10393610  T      111       0.00307243      -0.00420921      -0.00543767
O       11.18641927       4.18813223      20.06543668  T      112      -0.00016615       0.00360693      -0.00028875
O        5.38626927       0.88851737      20.11552399  T      113      -0.00360464      -0.00231537       0.00576472
O       -0.28443849       4.20359520      20.42997880  T      114       0.00042948       0.00026021      -0.01279563
O       -3.45298505      10.68343612      20.23658064  T      115       0.00227745       0.00082448       0.00283676
O        3.69729222      10.28256850      20.24981339  T      116      -0.00881934      -0.00614335      -0.00287390
O       -1.80130972       7.45116456      20.59493250  T      117      -0.01119526      -0.01009768      -0.00423145
O        0.08111282      10.44706949      20.61541441  T      118       0.00300279      -0.00319360       0.00376344
O        1.72292870       7.30565558      20.62525618  T      119      -0.00602604       0.00657856      -0.00442415
O        0.63768594       1.68367123      22.01321890  T        0      -0.00255120       0.02780586      -0.00727656
O        1.20770793      -0.54339990      21.96970669  T        0       0.00239377       0.00290424      -0.00279096
C        0.99078124       0.55972782      24.05881174  T        0      -0.00448746       0.00709815       0.00446953
C        0.95655138       0.55520793      22.53456337  T        0      -0.00995841       0.01757769      -0.01842988
H        1.56337878       1.41907986      24.42515214  T        0      -0.00050652       0.02205821      -0.01546610
H       -0.03497211       0.67640573      24.43233501  T        0      -0.00758341       0.01368958       0.01590697
H        1.40980210      -0.37557539      24.43997250  T        0       0.00407588      -0.00026558       0.00374795
H       -0.44382325       4.17911387      21.39440413  T        0       0.00915473       0.00006999      -0.00975859
