128
Lattice="14.567458257780915 0.0 0.0 -7.283729128890462 12.615788919807672 0.0 0.0 0.0 33.04905420593702" Properties=species:S:1:pos:R:3:move_mask:L:1:spacegroup_kinds:I:1:forces:R:3 spacegroup="P 1" unit_cell=conventional occupancy="_JSON {\"0\": {\"O\": 1.0}, \"1\": {\"O\": 1.0}, \"2\": {\"O\": 1.0}, \"3\": {\"O\": 1.0}, \"4\": {\"O\": 1.0}, \"5\": {\"O\": 1.0}, \"6\": {\"O\": 1.0}, \"7\": {\"O\": 1.0}, \"8\": {\"O\": 1.0}, \"9\": {\"O\": 1.0}, \"10\": {\"O\": 1.0}, \"11\": {\"O\": 1.0}, \"12\": {\"In\": 1.0}, \"13\": {\"In\": 1.0}, \"14\": {\"In\": 1.0}, \"15\": {\"In\": 1.0}, \"16\": {\"In\": 1.0}, \"17\": {\"In\": 1.0}, \"18\": {\"In\": 1.0}, \"19\": {\"In\": 1.0}, \"20\": {\"In\": 1.0}, \"21\": {\"In\": 1.0}, \"22\": {\"In\": 1.0}, \"23\": {\"In\": 1.0}, \"24\": {\"In\": 1.0}, \"25\": {\"In\": 1.0}, \"26\": {\"In\": 1.0}, \"27\": {\"In\": 1.0}, \"28\": {\"O\": 1.0}, \"29\": {\"O\": 1.0}, \"30\": {\"O\": 1.0}, \"31\": {\"O\": 1.0}, \"32\": {\"O\": 1.0}, \"33\": {\"O\": 1.0}, \"34\": {\"O\": 1.0}, \"35\": {\"O\": 1.0}, \"36\": {\"O\": 1.0}, \"37\": {\"O\": 1.0}, \"38\": {\"O\": 1.0}, \"39\": {\"O\": 1.0}, \"40\": {\"O\": 1.0}, \"41\": {\"O\": 1.0}, \"42\": {\"O\": 1.0}, \"43\": {\"O\": 1.0}, \"44\": {\"O\": 1.0}, \"45\": {\"O\": 1.0}, \"46\": {\"O\": 1.0}, \"47\": {\"O\": 1.0}, \"48\": {\"O\": 1.0}, \"49\": {\"O\": 1.0}, \"50\": {\"O\": 1.0}, \"51\": {\"O\": 1.0}, \"52\": {\"In\": 1.0}, \"53\": {\"In\": 1.0}, \"54\": {\"In\": 1.0}, \"55\": {\"In\": 1.0}, \"56\": {\"In\": 1.0}, \"57\": {\"In\": 1.0}, \"58\": {\"In\": 1.0}, \"59\": {\"In\": 1.0}, \"60\": {\"In\": 1.0}, \"61\": {\"In\": 1.0}, \"62\": {\"In\": 1.0}, \"63\": {\"In\": 1.0}, \"64\": {\"In\": 1.0}, \"65\": {\"In\": 1.0}, \"66\": {\"In\": 1.0}, \"67\": {\"In\": 1.0}, \"68\": {\"O\": 1.0}, \"69\": {\"O\": 1.0}, \"70\": {\"O\": 1.0}, \"71\": {\"O\": 1.0}, \"72\": {\"O\": 1.0}, \"73\": {\"O\": 1.0}, \"74\": {\"O\": 1.0}, \"75\": {\"O\": 1.0}, \"76\": {\"O\": 1.0}, \"77\": {\"O\": 1.0}, \"78\": {\"O\": 1.0}, \"79\": {\"O\": 1.0}, \"80\": {\"O\": 1.0}, \"81\": {\"O\": 1.0}, \"82\": {\"O\": 1.0}, \"83\": {\"O\": 1.0}, \"84\": {\"O\": 1.0}, \"85\": {\"O\": 1.0}, \"86\": {\"O\": 1.0}, \"87\": {\"O\": 1.0}, \"88\": {\"O\": 1.0}, \"89\": {\"O\": 1.0}, \"90\": {\"O\": 1.0}, \"91\": {\"O\": 1.0}, \"92\": {\"In\": 1.0}, \"93\": {\"In\": 1.0}, \"94\": {\"In\": 1.0}, \"95\": {\"In\": 1.0}, \"96\": {\"In\": 1.0}, \"97\": {\"In\": 1.0}, \"98\": {\"In\": 1.0}, \"99\": {\"In\": 1.0}, \"100\": {\"In\": 1.0}, \"101\": {\"In\": 1.0}, \"102\": {\"In\": 1.0}, \"103\": {\"In\": 1.0}, \"104\": {\"In\": 1.0}, \"105\": {\"In\": 1.0}, \"106\": {\"In\": 1.0}, \"107\": {\"In\": 1.0}, \"108\": {\"O\": 1.0}, \"109\": {\"O\": 1.0}, \"110\": {\"O\": 1.0}, \"111\": {\"O\": 1.0}, \"112\": {\"O\": 1.0}, \"113\": {\"O\": 1.0}, \"114\": {\"O\": 1.0}, \"115\": {\"O\": 1.0}, \"116\": {\"O\": 1.0}, \"117\": {\"O\": 1.0}, \"118\": {\"O\": 1.0}, \"119\": {\"O\": 1.0}}" energy=-707.0650024414062 free_energy=-707.0650024414062 stress="0.007337028626352549 0.00016144571418408304 -1.5701327356509864e-05 0.00016144571418408304 0.007213324774056673 -1.4661513887403999e-05 -1.5701327356509864e-05 -1.4661513887403999e-05 -6.512161780847237e-05" pbc="T T T"
O        5.56112551       5.29730098      12.44442493  F        0      -0.00213836       0.01034640       0.00163662
O        7.19929797       2.16742567      12.44442488  F        1       0.00868360      -0.00489244       0.00205421
O        9.09076378       5.15106294      12.44442506  F        2       0.01314440       0.00134204       0.00890076
O        3.56236441       2.32744963      12.81467041  F        3       0.00168502      -0.00467857      -0.01981556
O       10.77064547       1.92137361      12.81467059  F        4       0.00307389       0.00633010      -0.00405341
O        7.51817736       8.36696557      12.81467060  F        5      -0.00532250       0.00212035      -0.00975966
O       -3.86713652       8.43746206      12.95843886  F        6       0.02255359      -0.01659483       0.01429528
O        1.91024068       5.04801920      12.95843918  F        7      -0.01647395       0.03095821       0.01422846
O        1.95689587      11.74609578      12.95843921  F        8      -0.00976188      -0.01755267       0.00919002
O       -5.62751792      11.43742505      12.90107995  F        9       0.00865366       0.00191287      -0.00499129
O        0.19238766       2.02350350      12.90107932  F       10      -0.03756610       0.01492685      -0.00298983
O        5.43512990      11.77064967      12.90107909  F       11      -0.00087666      -0.02177899       0.00224692
In       2.02827288       0.93415595      13.34696164  F       12       0.01225130       0.00538724       0.07179060
In       5.45297263       1.43044201      13.46548669  F       13      -0.01006945      -0.00194975       0.00135365
In       5.79604177       7.17815473      13.46548635  F       14      -0.00503074      -0.00784314      -0.02039297
In       7.07859496      10.39217548      13.34696140  F       15       0.00919142      -0.00243025       0.02344988
In      10.60217256       4.00719198      13.46548647  F       16      -0.01293238      -0.00499835      -0.04080068
In      12.74431985       1.28945811      13.34696112  F       17       0.00031447      -0.00895062       0.02057448
In      -3.76992867      10.45841758      13.58493911  F       18      -0.00660887       0.02333535       0.02030654
In       0.11143913       4.12172609      13.58493797  F       19       0.02307567      -0.01736997       0.01527183
In       7.28372934       4.20526284      13.28077194  F       20      -0.02212132      -0.00470991      -0.00011060
In       3.65848992      10.65143468      13.58493907  F       21       0.01004507       0.00206285      -0.00515117
In      -2.12514371       7.57248039      13.82744761  F       22      -0.03090376       0.02637335      -0.05210522
In       1.78834112       6.98912009      13.82744861  F       23       0.02755120      -0.03940548      -0.05096501
In       3.89762555       4.37439996      13.55369945  F       24       0.01265611      -0.02123246       0.01672194
In       0.33680320      10.66997741      13.82744770  F       25       0.01459144       0.02847500      -0.00669831
In       8.83030441       1.18824328      13.55369950  F       26      -0.00989328       0.00716857      -0.00268206
In       9.12325787       7.05314622      13.55369981  F       27      -0.02740596       0.00085253      -0.00855357
O        1.94314284       9.09920259      13.79983277  F       28      -0.00361411       0.00784159       0.01071274
O       -0.37515974       6.38337672      13.79983300  F       29       0.00666744      -0.00062361       0.02564746
O       -1.56798334       9.74899853      13.79983313  F       30      -0.00556868      -0.02899902       0.00195611
O       -1.90665604       3.49451490      14.07374983  F       31      -0.02016835       0.02293789       0.03373519
O       -3.30406258      12.51974383      14.07375025  F       32       0.01516989      -0.01591361      -0.03973955
O        5.21071859       9.21731872      14.07374980  F       33      -0.01269999      -0.00757572      -0.00824547
O        6.95268262       0.11029125      14.35625235  F       34       0.01353273      -0.00544135      -0.00795338
O        3.90290295       6.53944318      14.35625252  F       35      -0.01363152       0.02393860       0.00100437
O       10.99560128       5.96605484      14.35625280  F       36       0.01959011      -0.01316530       0.04460542
O        5.60077915       3.29585311      14.56420047  F       37       0.01519381       0.02932677      -0.02272940
O        8.91277589       3.20249084      14.56420075  F       38       0.00840276      -0.00643197       0.01477212
O        7.33763173       6.11744518      14.56420087  F       39       0.03314812      -0.00035699      -0.00001627
O        1.68336921       1.02548187      15.48953070  F       40      -0.02121836      -0.00495679      -0.07043187
O       12.83768043       0.94510034      15.48953027  F       41      -0.06341105       0.01810664      -0.01657902
O        7.33013789      10.64520717      15.48953039  F       42      -0.04350266      -0.02969612      -0.02144143
O       -3.87048772      10.25806959      15.75644575  F       43       0.05934118      -0.04085109      -0.01892464
O        0.33522381       4.13481358      15.75644581  F       44      -0.08806199       0.07838221      -0.04093923
O        3.53526358      10.83869431      15.75644572  F       45      -0.02600101      -0.01591578       0.01558636
O        9.24484356       0.74344663      15.94429150  F       46       0.06935945       0.01503250      -0.00740649
O        3.30515102       4.23779662      15.94429168  F       47      -0.04102287       0.10225634       0.00338914
O        9.30119327       7.63454631      15.94429132  F       48       0.00322479      -0.01614624       0.01014689
O       -1.89390768       7.68105065      15.98554452  F       49       0.06194879      -0.09759669       0.08936016
O        1.57869822       7.13509120      15.98554413  F       50      -0.05773166      -0.00474196       0.10778965
O        0.31520971      10.41543579      15.98554439  F       51       0.02832979      -0.05785197       0.00627191
In      -1.57901381       3.03754313      16.29163881  F       52       0.12496321      -0.17780937      -0.03069954
In      -3.86363272      12.46448245      16.29163869  F       53      -0.03242997       0.16405950       0.16491100
In      -0.30746998       6.17668715      16.39885574  F       54       0.12120256      -0.03454398      -0.23514178
In      -1.78082649       9.79372205      16.39885556  F       55      -0.00521300       0.08771503       0.00753652
In       2.08829635       9.26116873      16.39885555  F       56      -0.01621404       0.02811230      -0.00251491
In       5.44264624       9.72955081      16.29163837  F       57       0.03905624       0.02354611      -0.03037461
In      14.56745775       0.00000023      16.52452729  F       58       0.09604748       0.05104649       0.04663346
In       7.28372884       0.00000046      16.52452727  F       59      -0.02941107       0.01866952      -0.02207370
In       3.64186448       6.30789445      16.52452688  F       60       0.10349777      -0.05862142      -0.13608718
In      -3.64186467       6.30789479      16.52452729  F       61      -0.17879875       0.08643532      -0.25717247
In       9.06455585       2.82206686      16.65019864  F       62      -0.08425231      -0.05412181      -0.08539754
In       1.84108280       2.88623741      16.75741682  F       63       0.02375193      -0.13856918       0.04177294
In       5.19543306       3.35462016      16.65019954  F       64      -0.07282356      -0.11965098       0.11455373
In      11.14736129       0.15130547      16.75741597  F       65       0.01747173      -0.02808997      -0.02880181
In       7.59119877       6.43910216      16.65019924  F       66      -0.04722815       0.01058577      -0.08614665
In       8.86274257       9.57824538      16.75741545  F       67       0.00055892       0.07195760      -0.08002742
O        9.17763668       4.93473784      17.06350958  F       68       0.02833343       0.00276384       0.05242136
O        6.96851909       2.20035367      17.06350993  F       69       0.16502106      -0.03412375      -0.04237868
O        5.70503103       5.48069763      17.06350990  F       70       0.07406279       0.12173452      -0.03689057
O       -2.01746347       4.98124236      17.10476289  F       71      -0.08713456       0.09009692       0.14508832
O       -1.96111486      11.87234229      17.10476307  F       72       0.05292711      -0.09565076       0.02484858
O        3.97857827       8.37799246      17.10476382  F       73      -0.01541984       0.02681564       0.03957617
O        6.94850543       8.48097521      17.29260816  F       74       0.01831564      -0.02559445       0.06243967
O       11.15421650       2.35771879      17.29260829  F       75       0.01669232       0.05922124      -0.01063616
O        3.74846506       1.77709453      17.29260778  F       76      -0.07354929       0.27578771       0.35081059
O       -0.04640858       1.97058198      17.55952389  F       77      -0.10993849      -0.00438364       0.24460034
O       -5.55395094      11.67068958      17.55952349  F       78      -0.03282302      -0.27056745      -0.32736582
O        5.60035973      11.59030666      17.55952404  F       79      -0.03501015      -0.01905759      -0.02888486
O       -1.60654023       9.40181886      18.48463622  T       80      -0.00115345      -0.00873795       0.00327694
O        1.68234367       9.29210548      18.49359824  T       81      -0.00226372       0.00061812      -0.01285720
O       -0.05108494       6.41022499      18.50006047  T       82       0.00641206       0.00290293       0.01153404
O        3.40980029       6.09169319      18.69234267  T       83      -0.00633316      -0.00233501      -0.01107194
O       -3.74286701       6.67732017      18.68143421  T       84       0.00602916       0.01110211       0.01029604
O        0.35954825      12.49446243      18.67915795  T       85       0.00355786      -0.00564659       0.00439732
O        9.19938300       9.11648933      18.98142735  T       86       0.00141494       0.00122917       0.00054125
O        1.93176568       3.44682131      18.92986267  T       87      -0.00271343       0.00356609      -0.00746726
O       10.60435508       0.09862971      18.98889099  T       88       0.00537390       0.00842938      -0.00300460
O        8.86761403       2.86363658      19.25571258  T       89      -0.00116077       0.00803635       0.01262617
O        5.34959151       3.52230236      19.18770971  T       90       0.00407562      -0.00962102      -0.00527894
O        7.66553627       6.23780415      19.26011066  T       91      -0.00352466      -0.00160858       0.00530368
In      -1.91575928       5.64322091      19.42117190  T       92       0.01202933       0.01345249      -0.00280783
In      -1.53732561      11.44181429      19.48881603  T       93       0.00103050       0.00133570      -0.00161259
In       6.95371616       1.93812157      19.21486757  T       94      -0.00594009      -0.00031926       0.00273892
In       3.40716933       8.25282973      19.48429952  T       95       0.00368027       0.00413141       0.01196898
In       5.51498935       5.62376942      19.22400519  T       96       0.00236280      -0.02005236       0.00274870
In       9.39107550       5.03011140      19.22327176  T       97      -0.00263226      -0.00483745      -0.00624773
In       0.00916841       8.42331480      19.78121041  T       98       0.00735829       0.00340409      -0.00001283
In       3.64276633       2.05220059      19.55905808  T       99      -0.00657122       0.02842679      -0.00055876
In      11.06480036       2.16034631      19.45278237  T      100       0.00533788      -0.01266354      -0.00592668
In       7.17368581       8.49977710      19.46554055  T      101      -0.01368832       0.00135272       0.00340237
In      -5.42873379      11.29059753      19.67706369  T      102       0.00754066       0.01292033      -0.00665939
In      -3.30918803       8.63306166      19.59520280  T      103       0.00274565      -0.00357866      -0.00571801
In       0.29794406       2.11327989      19.77595937  T      104       0.00700036      -0.00128373       0.01139037
In       1.56010705       5.45519891      19.56668134  T      105       0.01841278       0.00529467      -0.01100397
In       1.83784998      11.18314018      19.58540503  T      106       0.00450820       0.00263030       0.00043839
In       5.26734764      11.68292515      19.69499065  T      107      -0.00455896      -0.00087852       0.00576186
O        1.93575650       0.75549891      19.96004165  T      108      -0.00679318      -0.02324244       0.00039822
O        7.10026555      10.59377375      20.14429741  T      109      -0.00247689      -0.01235022       0.00331920
O       12.93740688       1.19865007      20.12038574  T      110      -0.01468299      -0.00038299       0.00040102
O        5.37912857       7.56422748      20.09118736  T      111       0.01128355       0.00106654       0.00854558
O       11.17129660       4.19839701      20.06532217  T      112       0.00315766      -0.00472854       0.00066233
O        5.35470665       0.86927982      20.06602221  T      113       0.00154843      -0.00096491       0.00066447
O       -0.33084797       4.31368997      20.35230045  T      114      -0.01347572       0.01308423      -0.00950485
O       -3.45663905      10.68072696      20.26316822  T      115      -0.00649053      -0.01530579      -0.00030059
O        3.72827099      10.28854185      20.22988285  T      116      -0.00165227       0.00010250      -0.00311410
O       -1.80184374       7.46605917      20.60226388  T      117      -0.01056799      -0.00300597       0.00298691
O        0.09401408      10.44737193      20.60794041  T      118      -0.00466237       0.00511113      -0.00055933
O        1.72505643       7.29928797      20.61144932  T      119       0.00488687      -0.00086877      -0.00238037
O        0.95404488       2.55044506      21.96180717  T        0      -0.01801825       0.00446416       0.00966185
O        3.16794415       2.95965521      21.59008158  T        0       0.00855744       0.00444168       0.01740041
C        2.44752157       2.33139143      23.78074107  T        0      -0.00709996       0.00116255      -0.00482378
C        2.17469698       2.62699076      22.32062459  T        0       0.01500472      -0.01010442      -0.00443506
H        2.04787010       3.14350097      24.40439283  T        0       0.00992473       0.01462511      -0.00776415
H        1.91162647       1.41943192      24.07032222  T        0       0.00802026      -0.00120505       0.02040240
H        3.52280624       2.22461671      23.95782765  T        0      -0.00663301       0.00944579       0.01435582
H       -0.38479353       4.23771503      21.32683267  T        0       0.01254077      -0.01513973      -0.01023573
