128
Lattice="14.567458257780915 0.0 0.0 -7.283729128890462 12.615788919807672 0.0 0.0 0.0 33.04905420593702" Properties=species:S:1:pos:R:3:move_mask:L:1:spacegroup_kinds:I:1:forces:R:3 spacegroup="P 1" unit_cell=conventional occupancy="_JSON {\"0\": {\"O\": 1.0}, \"1\": {\"O\": 1.0}, \"2\": {\"O\": 1.0}, \"3\": {\"O\": 1.0}, \"4\": {\"O\": 1.0}, \"5\": {\"O\": 1.0}, \"6\": {\"O\": 1.0}, \"7\": {\"O\": 1.0}, \"8\": {\"O\": 1.0}, \"9\": {\"O\": 1.0}, \"10\": {\"O\": 1.0}, \"11\": {\"O\": 1.0}, \"12\": {\"In\": 1.0}, \"13\": {\"In\": 1.0}, \"14\": {\"In\": 1.0}, \"15\": {\"In\": 1.0}, \"16\": {\"In\": 1.0}, \"17\": {\"In\": 1.0}, \"18\": {\"In\": 1.0}, \"19\": {\"In\": 1.0}, \"20\": {\"In\": 1.0}, \"21\": {\"In\": 1.0}, \"22\": {\"In\": 1.0}, \"23\": {\"In\": 1.0}, \"24\": {\"In\": 1.0}, \"25\": {\"In\": 1.0}, \"26\": {\"In\": 1.0}, \"27\": {\"In\": 1.0}, \"28\": {\"O\": 1.0}, \"29\": {\"O\": 1.0}, \"30\": {\"O\": 1.0}, \"31\": {\"O\": 1.0}, \"32\": {\"O\": 1.0}, \"33\": {\"O\": 1.0}, \"34\": {\"O\": 1.0}, \"35\": {\"O\": 1.0}, \"36\": {\"O\": 1.0}, \"37\": {\"O\": 1.0}, \"38\": {\"O\": 1.0}, \"39\": {\"O\": 1.0}, \"40\": {\"O\": 1.0}, \"41\": {\"O\": 1.0}, \"42\": {\"O\": 1.0}, \"43\": {\"O\": 1.0}, \"44\": {\"O\": 1.0}, \"45\": {\"O\": 1.0}, \"46\": {\"O\": 1.0}, \"47\": {\"O\": 1.0}, \"48\": {\"O\": 1.0}, \"49\": {\"O\": 1.0}, \"50\": {\"O\": 1.0}, \"51\": {\"O\": 1.0}, \"52\": {\"In\": 1.0}, \"53\": {\"In\": 1.0}, \"54\": {\"In\": 1.0}, \"55\": {\"In\": 1.0}, \"56\": {\"In\": 1.0}, \"57\": {\"In\": 1.0}, \"58\": {\"In\": 1.0}, \"59\": {\"In\": 1.0}, \"60\": {\"In\": 1.0}, \"61\": {\"In\": 1.0}, \"62\": {\"In\": 1.0}, \"63\": {\"In\": 1.0}, \"64\": {\"In\": 1.0}, \"65\": {\"In\": 1.0}, \"66\": {\"In\": 1.0}, \"67\": {\"In\": 1.0}, \"68\": {\"O\": 1.0}, \"69\": {\"O\": 1.0}, \"70\": {\"O\": 1.0}, \"71\": {\"O\": 1.0}, \"72\": {\"O\": 1.0}, \"73\": {\"O\": 1.0}, \"74\": {\"O\": 1.0}, \"75\": {\"O\": 1.0}, \"76\": {\"O\": 1.0}, \"77\": {\"O\": 1.0}, \"78\": {\"O\": 1.0}, \"79\": {\"O\": 1.0}, \"80\": {\"O\": 1.0}, \"81\": {\"O\": 1.0}, \"82\": {\"O\": 1.0}, \"83\": {\"O\": 1.0}, \"84\": {\"O\": 1.0}, \"85\": {\"O\": 1.0}, \"86\": {\"O\": 1.0}, \"87\": {\"O\": 1.0}, \"88\": {\"O\": 1.0}, \"89\": {\"O\": 1.0}, \"90\": {\"O\": 1.0}, \"91\": {\"O\": 1.0}, \"92\": {\"In\": 1.0}, \"93\": {\"In\": 1.0}, \"94\": {\"In\": 1.0}, \"95\": {\"In\": 1.0}, \"96\": {\"In\": 1.0}, \"97\": {\"In\": 1.0}, \"98\": {\"In\": 1.0}, \"99\": {\"In\": 1.0}, \"100\": {\"In\": 1.0}, \"101\": {\"In\": 1.0}, \"102\": {\"In\": 1.0}, \"103\": {\"In\": 1.0}, \"104\": {\"In\": 1.0}, \"105\": {\"In\": 1.0}, \"106\": {\"In\": 1.0}, \"107\": {\"In\": 1.0}, \"108\": {\"O\": 1.0}, \"109\": {\"O\": 1.0}, \"110\": {\"O\": 1.0}, \"111\": {\"O\": 1.0}, \"112\": {\"O\": 1.0}, \"113\": {\"O\": 1.0}, \"114\": {\"O\": 1.0}, \"115\": {\"O\": 1.0}, \"116\": {\"O\": 1.0}, \"117\": {\"O\": 1.0}, \"118\": {\"O\": 1.0}, \"119\": {\"O\": 1.0}}" energy=-707.65576171875 free_energy=-707.65576171875 stress="0.007515475619584322 0.0002893813361879438 2.7338428481016308e-05 0.0002893813361879438 0.00781827699393034 -1.710662581899669e-05 2.7338428481016308e-05 -1.710662581899669e-05 1.7334738004137762e-05" pbc="T T T"
O        5.56112551       5.29730098      12.44442493  F        0      -0.01840530      -0.00133948      -0.00307083
O        7.19929797       2.16742567      12.44442488  F        1      -0.00821387      -0.01563045      -0.00369179
O        9.09076378       5.15106294      12.44442506  F        2       0.01449507      -0.00168630      -0.00242472
O        3.56236441       2.32744963      12.81467041  F        3      -0.00727001      -0.00529581      -0.01114786
O       10.77064547       1.92137361      12.81467059  F        4       0.02355835       0.00036463      -0.00766087
O        7.51817736       8.36696557      12.81467060  F        5      -0.01478802       0.01753083      -0.02133632
O       -3.86713652       8.43746206      12.95843886  F        6       0.04142199      -0.00211121       0.00221157
O        1.91024068       5.04801920      12.95843918  F        7      -0.02046424       0.01709187       0.01953101
O        1.95689587      11.74609578      12.95843921  F        8      -0.01736380      -0.01920778       0.01448417
O       -5.62751792      11.43742505      12.90107995  F        9       0.01728220       0.02620311      -0.00567806
O        0.19238766       2.02350350      12.90107932  F       10      -0.02239652       0.01661678       0.00829446
O        5.43512990      11.77064967      12.90107909  F       11       0.00066447      -0.00747325      -0.00277567
In       2.02827288       0.93415595      13.34696164  F       12       0.01248308      -0.00623798       0.01441073
In       5.45297263       1.43044201      13.46548669  F       13       0.00529037       0.00759327      -0.01533340
In       5.79604177       7.17815473      13.46548635  F       14       0.02406577      -0.01208159       0.00311968
In       7.07859496      10.39217548      13.34696140  F       15       0.01178420      -0.02325575       0.03788431
In      10.60217256       4.00719198      13.46548647  F       16      -0.05022027       0.00967371      -0.01144084
In      12.74431985       1.28945811      13.34696112  F       17      -0.01526903      -0.01315062       0.00715935
In      -3.76992867      10.45841758      13.58493911  F       18      -0.02036931      -0.00883704       0.03600807
In       0.11143913       4.12172609      13.58493797  F       19       0.00774383      -0.00935085      -0.05161941
In       7.28372934       4.20526284      13.28077194  F       20       0.01613319       0.02413632       0.02483854
In       3.65848992      10.65143468      13.58493907  F       21       0.01918062      -0.00585822       0.00886196
In      -2.12514371       7.57248039      13.82744761  F       22      -0.06793396       0.01594198      -0.02636668
In       1.78834112       6.98912009      13.82744861  F       23       0.03846466      -0.02909349      -0.05095927
In       3.89762555       4.37439996      13.55369945  F       24       0.03362710      -0.00125742      -0.00005778
In       0.33680320      10.66997741      13.82744770  F       25       0.01539946       0.02994998      -0.04662968
In       8.83030441       1.18824328      13.55369950  F       26       0.00259660       0.03774089       0.01074942
In       9.12325787       7.05314622      13.55369981  F       27      -0.03267729       0.00050216       0.05120131
O        1.94314284       9.09920259      13.79983277  F       28      -0.01691345       0.00629807       0.01797289
O       -0.37515974       6.38337672      13.79983300  F       29       0.01572245      -0.01725850       0.04258615
O       -1.56798334       9.74899853      13.79983313  F       30       0.00750220      -0.01477420       0.01790768
O       -1.90665604       3.49451490      14.07374983  F       31       0.01452501       0.02506638       0.05171239
O       -3.30406258      12.51974383      14.07375025  F       32       0.01477334       0.01104635      -0.00924778
O        5.21071859       9.21731872      14.07374980  F       33      -0.02455074       0.00526714      -0.02594103
O        6.95268262       0.11029125      14.35625235  F       34      -0.00538218      -0.01613836       0.01682816
O        3.90290295       6.53944318      14.35625252  F       35      -0.03718100       0.00684041      -0.00308029
O       10.99560128       5.96605484      14.35625280  F       36       0.07557228      -0.01988614       0.02667846
O        5.60077915       3.29585311      14.56420047  F       37      -0.02267269       0.00153418      -0.01208019
O        8.91277589       3.20249084      14.56420075  F       38      -0.00581531      -0.04735724      -0.04500717
O        7.33763173       6.11744518      14.56420087  F       39      -0.00485754      -0.01485737      -0.07903284
O        1.68336921       1.02548187      15.48953070  F       40       0.00906850       0.04463874      -0.01160507
O       12.83768043       0.94510034      15.48953027  F       41       0.00895763       0.01792678      -0.00033960
O        7.33013789      10.64520717      15.48953039  F       42      -0.01241182       0.05461679      -0.05374447
O       -3.87048772      10.25806959      15.75644575  F       43       0.10312297       0.02183834      -0.03507337
O        0.33522381       4.13481358      15.75644581  F       44      -0.05281475       0.09282418       0.05715441
O        3.53526358      10.83869431      15.75644572  F       45      -0.02387941      -0.02048635       0.00760042
O        9.24484356       0.74344663      15.94429150  F       46      -0.00010118      -0.00893489       0.00241520
O        3.30515102       4.23779662      15.94429168  F       47      -0.06831151      -0.00769070      -0.01187344
O        9.30119327       7.63454631      15.94429132  F       48       0.12347555      -0.01432294      -0.04954430
O       -1.89390768       7.68105065      15.98554452  F       49       0.09251633      -0.04515684       0.00299554
O        1.57869822       7.13509120      15.98554413  F       50      -0.08794212      -0.01618627       0.10733745
O        0.31520971      10.41543579      15.98554439  F       51      -0.08807744      -0.07321998       0.08846812
In      -1.57901381       3.03754313      16.29163881  F       52      -0.03892034      -0.19921291      -0.07478607
In      -3.86363272      12.46448245      16.29163869  F       53      -0.08674532      -0.02213223       0.00509684
In      -0.30746998       6.17668715      16.39885574  F       54       0.06586861       0.11582442      -0.29424399
In      -1.78082649       9.79372205      16.39885556  F       55      -0.13198100      -0.09902581       0.25130340
In       2.08829635       9.26116873      16.39885555  F       56       0.11788382       0.03557701      -0.20218703
In       5.44264624       9.72955081      16.29163837  F       57       0.13945085      -0.06789307       0.01321866
In      14.56745775       0.00000023      16.52452729  F       58       0.03967338      -0.06134960      -0.01832489
In       7.28372884       0.00000046      16.52452727  F       59       0.03673586       0.08287464       0.01041168
In       3.64186448       6.30789445      16.52452688  F       60       0.14408472      -0.05940528      -0.00706575
In      -3.64186467       6.30789479      16.52452729  F       61      -0.37771851       0.07376867       0.13103935
In       9.06455585       2.82206686      16.65019864  F       62       0.00482621       0.28619900       0.11834324
In       1.84108280       2.88623741      16.75741682  F       63       0.05229995      -0.03449202      -0.00843806
In       5.19543306       3.35462016      16.65019954  F       64       0.06749603       0.08943488      -0.00849155
In      11.14736129       0.15130547      16.75741597  F       65       0.01833440      -0.01005348      -0.06795307
In       7.59119877       6.43910216      16.65019924  F       66       0.10571395      -0.06307318       0.27592981
In       8.86274257       9.57824538      16.75741545  F       67      -0.03677692      -0.03400605      -0.14628017
O        9.17763668       4.93473784      17.06350958  F       68       0.33714402       0.03588557       0.36084720
O        6.96851909       2.20035367      17.06350993  F       69       0.00399797      -0.04598050       0.02705912
O        5.70503103       5.48069763      17.06350990  F       70      -0.35742313      -0.15688786      -0.19989038
O       -2.01746347       4.98124236      17.10476289  F       71       0.18135653      -0.09138609      -0.06551355
O       -1.96111486      11.87234229      17.10476307  F       72       0.04612893      -0.23476082       0.14965017
O        3.97857827       8.37799246      17.10476382  F       73      -0.05970302       0.01313007       0.08136366
O        6.94850543       8.48097521      17.29260816  F       74      -0.26943904       0.24009380      -0.24858078
O       11.15421650       2.35771879      17.29260829  F       75       0.05692387      -0.08080408      -0.11845297
O        3.74846506       1.77709453      17.29260778  F       76       0.00959837       0.01708734       0.00236940
O       -0.04640858       1.97058198      17.55952389  F       77      -0.00443870       0.07989667      -0.01458322
O       -5.55395094      11.67068958      17.55952349  F       78      -0.00706038       0.18385291      -0.09599712
O        5.60035973      11.59030666      17.55952404  F       79      -0.03526755       0.01214426       0.01191521
O       -1.68924276       9.33319065      18.53659216  T       80       0.00705467       0.00745586       0.00613242
O        1.70155060       9.34444306      18.47382545  T       81      -0.00466914      -0.01012073       0.00023204
O       -0.09046724       6.51888633      18.49554912  T       82       0.00766654       0.00102212      -0.00109991
O        3.37886445       6.09698528      18.69996452  T       83      -0.01209860      -0.00892651      -0.01115178
O       -3.60190010       6.65683693      18.71553351  T       84      -0.00452510       0.00776440      -0.00329772
O        0.32616627      12.49459971      18.69328143  T       85      -0.00596112      -0.00158449       0.00101622
O        9.16064587       9.16097958      18.90498614  T       86       0.00535600      -0.00716251       0.00509654
O        2.07620861       3.41489916      18.97088340  T       87      -0.00200099      -0.00622323       0.00626537
O       10.58624789       0.08371281      18.97402326  T       88      -0.00251788      -0.00135925      -0.00822808
O        8.84833963       2.89049502      19.26236305  T       89       0.01541042       0.00295673      -0.00183022
O        5.34158222       3.52305073      19.26428447  T       90       0.00217211      -0.00910693      -0.00126249
O        7.62793214       6.27981210      19.05496976  T       91       0.00283492       0.00142419       0.00679886
In      -1.82717196       5.43383735      19.35610444  T       92      -0.00225029       0.00802824      -0.00653089
In      -1.57615748      11.41586462      19.48221348  T       93      -0.00245841      -0.00841049       0.00742649
In       6.95699374       1.95162157      19.22443848  T       94      -0.02262635      -0.00994822       0.00585416
In       3.41603018       8.24656093      19.49863098  T       95      -0.01503086      -0.00369192       0.00027635
In       5.51333470       5.63635610      19.20954266  T       96      -0.00224076       0.00341693      -0.00331152
In       9.39972692       5.10473143      19.33460397  T       97       0.01095901       0.00595831      -0.00179955
In       0.05304221       8.45950609      19.66255580  T       98      -0.00240871      -0.00289509      -0.00027107
In       3.63224601       1.97587585      19.46256728  T       99       0.00899368      -0.01182031      -0.00001314
In      11.03320978       2.13189435      19.45145747  T      100      -0.00067690       0.01308801       0.00852111
In       7.17346643       8.48362280      19.44545364  T      101       0.00444341       0.00182796       0.00224495
In      -5.47434741      11.33280572      19.69064220  T      102       0.00086478      -0.00052170       0.00547591
In      -3.48517512       8.58017185      19.70314233  T      103       0.00633872       0.00828251      -0.00780766
In       0.20933794       2.20926194      19.69841228  T      104      -0.00268288       0.00593428       0.00029545
In       1.50446054       5.44414274      19.58873219  T      105      -0.00219170      -0.00209445       0.00641666
In       1.83457541      11.20549305      19.59872868  T      106      -0.01361605      -0.00757185       0.00226946
In       5.26589241      11.67222528      19.70230628  T      107      -0.00080885       0.00097894       0.00622581
O        1.85419343       0.85450275      20.14279178  T      108      -0.00311281       0.00503951       0.00312483
O        7.09036769      10.57790485      20.15077894  T      109      -0.00661270       0.00912349       0.00731087
O       12.91418343       1.16747486      20.13537236  T      110      -0.00370519      -0.00608763       0.00128800
O        5.38559178       7.55655814      20.13324976  T      111       0.00520489       0.00590839      -0.00418687
O       11.20217794       4.13142048      20.00296308  T      112      -0.00969572      -0.01477972       0.00859553
O        5.33112579       0.86455018      20.07167257  T      113       0.00164723       0.01071694      -0.00119412
O       -0.22026852       4.25307369      20.22568658  T      114       0.00589289       0.00551872       0.01047665
O       -3.50047029      10.69576338      20.22622826  T      115       0.00623470      -0.00106621       0.00218320
O        3.71817556      10.28561152      20.24081371  T      116       0.00740162       0.01469699       0.00465983
O       -1.71963098       7.42804360      20.68906738  T      117      -0.00433738      -0.00543459       0.00168371
O        0.07299425      10.43972464      20.59454132  T      118      -0.00567410      -0.00846833      -0.00385034
O        1.70217969       7.34156632      20.58482765  T      119      -0.00380342       0.00176223       0.00112355
O       -4.66367140       7.93510327      21.52380451  T        0       0.00466511      -0.00953040      -0.00580707
O       -5.37546437       5.76659548      21.49191775  T        0       0.00400671      -0.00158089       0.01696652
C       -5.49271818       6.98183705      23.52412663  T        0      -0.00037663       0.00283715       0.00412282
C       -5.15181211       6.87961094      22.05275256  T        0       0.00863504       0.00964031       0.00510836
H       -4.60568524       6.70859204      24.11369647  T        0       0.00744022       0.00750814      -0.01224517
H       -5.75785764       8.01515064      23.77499029  T        0      -0.00207690      -0.00634506      -0.00479237
H       -6.29693040       6.28559215      23.78194650  T        0      -0.01070274      -0.00272025      -0.00955176
H       -1.67781261       7.37238189      21.66037276  T        0       0.00045174      -0.01185261       0.00163192
