128
Lattice="14.567458257780915 0.0 0.0 -7.283729128890462 12.615788919807672 0.0 0.0 0.0 33.04905420593702" Properties=species:S:1:pos:R:3:move_mask:L:1:spacegroup_kinds:I:1:forces:R:3 spacegroup="P 1" unit_cell=conventional occupancy="_JSON {\"0\": {\"O\": 1.0}, \"1\": {\"O\": 1.0}, \"2\": {\"O\": 1.0}, \"3\": {\"O\": 1.0}, \"4\": {\"O\": 1.0}, \"5\": {\"O\": 1.0}, \"6\": {\"O\": 1.0}, \"7\": {\"O\": 1.0}, \"8\": {\"O\": 1.0}, \"9\": {\"O\": 1.0}, \"10\": {\"O\": 1.0}, \"11\": {\"O\": 1.0}, \"12\": {\"In\": 1.0}, \"13\": {\"In\": 1.0}, \"14\": {\"In\": 1.0}, \"15\": {\"In\": 1.0}, \"16\": {\"In\": 1.0}, \"17\": {\"In\": 1.0}, \"18\": {\"In\": 1.0}, \"19\": {\"In\": 1.0}, \"20\": {\"In\": 1.0}, \"21\": {\"In\": 1.0}, \"22\": {\"In\": 1.0}, \"23\": {\"In\": 1.0}, \"24\": {\"In\": 1.0}, \"25\": {\"In\": 1.0}, \"26\": {\"In\": 1.0}, \"27\": {\"In\": 1.0}, \"28\": {\"O\": 1.0}, \"29\": {\"O\": 1.0}, \"30\": {\"O\": 1.0}, \"31\": {\"O\": 1.0}, \"32\": {\"O\": 1.0}, \"33\": {\"O\": 1.0}, \"34\": {\"O\": 1.0}, \"35\": {\"O\": 1.0}, \"36\": {\"O\": 1.0}, \"37\": {\"O\": 1.0}, \"38\": {\"O\": 1.0}, \"39\": {\"O\": 1.0}, \"40\": {\"O\": 1.0}, \"41\": {\"O\": 1.0}, \"42\": {\"O\": 1.0}, \"43\": {\"O\": 1.0}, \"44\": {\"O\": 1.0}, \"45\": {\"O\": 1.0}, \"46\": {\"O\": 1.0}, \"47\": {\"O\": 1.0}, \"48\": {\"O\": 1.0}, \"49\": {\"O\": 1.0}, \"50\": {\"O\": 1.0}, \"51\": {\"O\": 1.0}, \"52\": {\"In\": 1.0}, \"53\": {\"In\": 1.0}, \"54\": {\"In\": 1.0}, \"55\": {\"In\": 1.0}, \"56\": {\"In\": 1.0}, \"57\": {\"In\": 1.0}, \"58\": {\"In\": 1.0}, \"59\": {\"In\": 1.0}, \"60\": {\"In\": 1.0}, \"61\": {\"In\": 1.0}, \"62\": {\"In\": 1.0}, \"63\": {\"In\": 1.0}, \"64\": {\"In\": 1.0}, \"65\": {\"In\": 1.0}, \"66\": {\"In\": 1.0}, \"67\": {\"In\": 1.0}, \"68\": {\"O\": 1.0}, \"69\": {\"O\": 1.0}, \"70\": {\"O\": 1.0}, \"71\": {\"O\": 1.0}, \"72\": {\"O\": 1.0}, \"73\": {\"O\": 1.0}, \"74\": {\"O\": 1.0}, \"75\": {\"O\": 1.0}, \"76\": {\"O\": 1.0}, \"77\": {\"O\": 1.0}, \"78\": {\"O\": 1.0}, \"79\": {\"O\": 1.0}, \"80\": {\"O\": 1.0}, \"81\": {\"O\": 1.0}, \"82\": {\"O\": 1.0}, \"83\": {\"O\": 1.0}, \"84\": {\"O\": 1.0}, \"85\": {\"O\": 1.0}, \"86\": {\"O\": 1.0}, \"87\": {\"O\": 1.0}, \"88\": {\"O\": 1.0}, \"89\": {\"O\": 1.0}, \"90\": {\"O\": 1.0}, \"91\": {\"O\": 1.0}, \"92\": {\"In\": 1.0}, \"93\": {\"In\": 1.0}, \"94\": {\"In\": 1.0}, \"95\": {\"In\": 1.0}, \"96\": {\"In\": 1.0}, \"97\": {\"In\": 1.0}, \"98\": {\"In\": 1.0}, \"99\": {\"In\": 1.0}, \"100\": {\"In\": 1.0}, \"101\": {\"In\": 1.0}, \"102\": {\"In\": 1.0}, \"103\": {\"In\": 1.0}, \"104\": {\"In\": 1.0}, \"105\": {\"In\": 1.0}, \"106\": {\"In\": 1.0}, \"107\": {\"In\": 1.0}, \"108\": {\"O\": 1.0}, \"109\": {\"O\": 1.0}, \"110\": {\"O\": 1.0}, \"111\": {\"O\": 1.0}, \"112\": {\"O\": 1.0}, \"113\": {\"O\": 1.0}, \"114\": {\"O\": 1.0}, \"115\": {\"O\": 1.0}, \"116\": {\"O\": 1.0}, \"117\": {\"O\": 1.0}, \"118\": {\"O\": 1.0}, \"119\": {\"O\": 1.0}}" energy=-706.9192504882812 free_energy=-706.9192504882812 stress="0.006796549074351788 0.00010625434515532106 -0.00013390030653681606 0.00010625434515532106 0.007127789314836264 -1.741459345794283e-05 -0.00013390030653681606 -1.741459345794283e-05 -0.0001166400543297641" pbc="T T T"
O        5.56112551       5.29730098      12.44442493  F        0      -0.00524533       0.00079384       0.00180864
O        7.19929797       2.16742567      12.44442488  F        1      -0.00167973      -0.00688282      -0.00004292
O        9.09076378       5.15106294      12.44442506  F        2       0.00511947      -0.00311107       0.00008750
O        3.56236441       2.32744963      12.81467041  F        3      -0.00114787      -0.00462316      -0.00872618
O       10.77064547       1.92137361      12.81467059  F        4       0.00787443      -0.00009748      -0.00569832
O        7.51817736       8.36696557      12.81467060  F        5      -0.00675485       0.00666964      -0.00955874
O       -3.86713652       8.43746206      12.95843886  F        6       0.02280350      -0.00410870       0.00078726
O        1.91024068       5.04801920      12.95843918  F        7      -0.00716475       0.01721879       0.00699800
O        1.95689587      11.74609578      12.95843921  F        8      -0.01272874      -0.01230547       0.01073331
O       -5.62751792      11.43742505      12.90107995  F        9       0.01048526       0.01627906       0.00564843
O        0.19238766       2.02350350      12.90107932  F       10      -0.02087779       0.00531419       0.00400573
O        5.43512990      11.77064967      12.90107909  F       11       0.00235549      -0.01027451       0.01094747
In       2.02827288       0.93415595      13.34696164  F       12       0.01156701       0.00570722       0.01539503
In       5.45297263       1.43044201      13.46548669  F       13       0.00630585      -0.00300104      -0.01541170
In       5.79604177       7.17815473      13.46548635  F       14      -0.00177836      -0.01057567      -0.01300603
In       7.07859496      10.39217548      13.34696140  F       15       0.00297147      -0.01577719       0.01885855
In      10.60217256       4.00719198      13.46548647  F       16      -0.00358421       0.01771799      -0.01408900
In      12.74431985       1.28945811      13.34696112  F       17      -0.00923293       0.01103576      -0.00719333
In      -3.76992867      10.45841758      13.58493911  F       18       0.00413767      -0.00778849       0.02480765
In       0.11143913       4.12172609      13.58493797  F       19      -0.00066566       0.00238125       0.00595653
In       7.28372934       4.20526284      13.28077194  F       20      -0.00098941       0.00895871       0.00081525
In       3.65848992      10.65143468      13.58493907  F       21      -0.00149604      -0.00633525      -0.01047482
In      -2.12514371       7.57248039      13.82744761  F       22      -0.03378735       0.00869895       0.01116365
In       1.78834112       6.98912009      13.82744861  F       23       0.00431163      -0.02529484       0.00132331
In       3.89762555       4.37439996      13.55369945  F       24       0.01210006      -0.00360634       0.00503540
In       0.33680320      10.66997741      13.82744770  F       25       0.01533554       0.01435734       0.00265634
In       8.83030441       1.18824328      13.55369950  F       26      -0.00684727       0.01476171      -0.00690576
In       9.12325787       7.05314622      13.55369981  F       27      -0.00486599      -0.00333710       0.01588257
O        1.94314284       9.09920259      13.79983277  F       28       0.00223330       0.01819122      -0.00845915
O       -0.37515974       6.38337672      13.79983300  F       29       0.02309766      -0.01403403      -0.01476496
O       -1.56798334       9.74899853      13.79983313  F       30      -0.01144058      -0.00631553      -0.01505935
O       -1.90665604       3.49451490      14.07374983  F       31      -0.00318181      -0.00346529      -0.00108840
O       -3.30406258      12.51974383      14.07375025  F       32       0.00935999       0.00662744      -0.01356447
O        5.21071859       9.21731872      14.07374980  F       33      -0.00416878       0.00506991       0.00555651
O        6.95268262       0.11029125      14.35625235  F       34      -0.00321391       0.00790314       0.00078185
O        3.90290295       6.53944318      14.35625252  F       35      -0.00058179       0.00282246      -0.00620151
O       10.99560128       5.96605484      14.35625280  F       36       0.00281388      -0.01451340      -0.01724233
O        5.60077915       3.29585311      14.56420047  F       37      -0.00619644       0.00864930       0.00044322
O        8.91277589       3.20249084      14.56420075  F       38      -0.01178625      -0.02558614       0.00168335
O        7.33763173       6.11744518      14.56420087  F       39       0.01175329      -0.01104522      -0.00926185
O        1.68336921       1.02548187      15.48953070  F       40      -0.00988438       0.02179907      -0.00390667
O       12.83768043       0.94510034      15.48953027  F       41      -0.00474807      -0.00972320       0.04854027
O        7.33013789      10.64520717      15.48953039  F       42      -0.04337696       0.03317587       0.01911975
O       -3.87048772      10.25806959      15.75644575  F       43       0.01551614      -0.00598553      -0.01826616
O        0.33522381       4.13481358      15.75644581  F       44      -0.00690392      -0.00717450       0.00412933
O        3.53526358      10.83869431      15.75644572  F       45       0.03407340       0.01118600       0.02955478
O        9.24484356       0.74344663      15.94429150  F       46       0.01811203       0.00579822       0.00389180
O        3.30515102       4.23779662      15.94429168  F       47      -0.02087790      -0.03063069      -0.01100661
O        9.30119327       7.63454631      15.94429132  F       48       0.02696009       0.00919995      -0.00515261
O       -1.89390768       7.68105065      15.98554452  F       49      -0.00423619      -0.04807582      -0.02279054
O        1.57869822       7.13509120      15.98554413  F       50      -0.01085922       0.01574129      -0.00460756
O        0.31520971      10.41543579      15.98554439  F       51       0.01597859       0.01180738      -0.00803433
In      -1.57901381       3.03754313      16.29163881  F       52      -0.00189956       0.03557355      -0.03873252
In      -3.86363272      12.46448245      16.29163869  F       53      -0.03057571      -0.01458063       0.00641766
In      -0.30746998       6.17668715      16.39885574  F       54      -0.00109552       0.03350955       0.03643854
In      -1.78082649       9.79372205      16.39885556  F       55       0.02820665      -0.02541112      -0.06846079
In       2.08829635       9.26116873      16.39885555  F       56      -0.04153095      -0.01136873      -0.02943003
In       5.44264624       9.72955081      16.29163837  F       57       0.06631322      -0.15112534       0.02370047
In      14.56745775       0.00000023      16.52452729  F       58       0.12074205       0.00552615      -0.03592473
In       7.28372884       0.00000046      16.52452727  F       59       0.01167623      -0.00375246      -0.05873080
In       3.64186448       6.30789445      16.52452688  F       60      -0.00043173      -0.01871268      -0.06858736
In      -3.64186467       6.30789479      16.52452729  F       61      -0.02069915       0.01887089      -0.05528168
In       9.06455585       2.82206686      16.65019864  F       62      -0.03791110       0.03432240      -0.09125668
In       1.84108280       2.88623741      16.75741682  F       63       0.03055799       0.01669856      -0.03585249
In       5.19543306       3.35462016      16.65019954  F       64      -0.00493059       0.04202173      -0.07356940
In      11.14736129       0.15130547      16.75741597  F       65      -0.11100083       0.07814816      -0.29164824
In       7.59119877       6.43910216      16.65019924  F       66      -0.05555091      -0.00343575      -0.00053927
In       8.86274257       9.57824538      16.75741545  F       67      -0.05264312       0.00882201       0.01708557
O        9.17763668       4.93473784      17.06350958  F       68       0.09517378      -0.08818331      -0.04351740
O        6.96851909       2.20035367      17.06350993  F       69       0.02365009      -0.00021583       0.03736493
O        5.70503103       5.48069763      17.06350990  F       70      -0.14828941      -0.07176436      -0.08734283
O       -2.01746347       4.98124236      17.10476289  F       71      -0.02824682      -0.01557827       0.04569757
O       -1.96111486      11.87234229      17.10476307  F       72       0.02148733      -0.00175849       0.01669878
O        3.97857827       8.37799246      17.10476382  F       73      -0.03226665       0.03353655       0.00245842
O        6.94850543       8.48097521      17.29260816  F       74       0.12552822      -0.04380957       0.35652319
O       11.15421650       2.35771879      17.29260829  F       75      -0.00955518       0.02217937       0.04074152
O        3.74846506       1.77709453      17.29260778  F       76       0.00995389       0.01403922      -0.00735826
O       -0.04640858       1.97058198      17.55952389  F       77      -0.03614265      -0.01840610       0.00196528
O       -5.55395094      11.67068958      17.55952349  F       78      -0.03130744       0.08604993       0.24184212
O        5.60035973      11.59030666      17.55952404  F       79      -0.09297766       0.03984258       0.12820545
O       -1.59150974       9.39183531      18.46827816  T       80      -0.00362994       0.00386532       0.00321060
O        1.69148033       9.31645750      18.48555613  T       81       0.00014341       0.00989693      -0.00295424
O       -0.06081382       6.49222163      18.48925447  T       82      -0.00135095      -0.00693142       0.00096405
O        3.35719427       6.07303622      18.68329554  T       83      -0.00186460      -0.01774389       0.00479082
O       -3.72606726       6.66733071      18.69108632  T       84       0.00216705       0.00095820       0.00191282
O        0.32749727      12.50529356      18.69558535  T       85       0.00311655       0.00153585      -0.00985648
O        9.19472574       9.19348022      18.94256172  T       86       0.00748040       0.00958076      -0.00943485
O        2.06286946       3.39258566      18.98096985  T       87       0.00657681      -0.00364710       0.01850329
O       10.53097978       0.11760061      18.95417479  T       88      -0.00671849      -0.00342400       0.00932039
O        8.84658500       2.86944605      19.25902436  T       89       0.00097102      -0.00392009      -0.00838035
O        5.32721958       3.51413689      19.25230930  T       90      -0.00277502      -0.00768417       0.00444615
O        7.63488689       6.17445212      19.17695059  T       91       0.01250076       0.00810301      -0.00784171
In      -1.84092507       5.56539768      19.49714566  T       92       0.00444986      -0.00196023       0.00417201
In      -1.51922645      11.42759352      19.47031332  T       93      -0.00532047      -0.02167137       0.00382023
In       6.93740225       1.95134889      19.22135605  T       94       0.02384673      -0.00318877       0.00964493
In       3.38624274       8.24473610      19.47853324  T       95       0.01843338       0.00179354       0.00195806
In       5.45926814       5.61986705      19.21151586  T       96       0.01448671       0.02102073      -0.00316555
In       9.40816443       5.04685887      19.21850464  T       97      -0.00459838       0.00511064       0.00069144
In       0.00173890       8.40232289      19.77091990  T       98      -0.00417296      -0.00748519      -0.00039715
In       3.62545463       1.96778671      19.45901096  T       99      -0.00074256      -0.01208496       0.00648275
In      11.02372562       2.18868518      19.46000546  T      100       0.00020786       0.00280901      -0.00199027
In       7.28455986       8.34118867      19.53648365  T      101       0.00013623      -0.00278963       0.00757281
In      -5.35712151      11.31985626      19.75167855  T      102       0.01854545       0.01880591       0.00178403
In      -3.29303063       8.60862280      19.56533009  T      103      -0.01133618       0.00955865       0.00003681
In       0.19872013       2.22437037      19.69326802  T      104       0.01340124      -0.00346537       0.00276490
In       1.47890572       5.43677787      19.59440045  T      105       0.00448064      -0.00313193      -0.01576638
In       1.79711006      11.17236260      19.59959259  T      106       0.00894584       0.00327907       0.00077109
In       5.10990510      11.75261801      19.65763777  T      107      -0.00266665       0.00353007      -0.00706918
O        1.84464931       0.82882448      20.12504323  T      108       0.00231038       0.00548956      -0.00768405
O        6.94515866      10.66682309      20.08045322  T      109       0.00986114       0.00413465      -0.00145003
O       12.87405807       1.19688700      20.14244830  T      110      -0.00828980      -0.00073349      -0.00110126
O        5.36891647       7.57255666      20.03388894  T      111       0.01085454       0.00108158      -0.00253457
O       11.13993666       4.19977644      20.10078478  T      112       0.00931706      -0.00196949      -0.00421664
O        5.32554476       0.86908789      20.08103556  T      113      -0.01703365       0.00800660       0.01382482
O       -0.24300328       4.24184146      20.24133216  T      114       0.00233654      -0.01101765       0.00332254
O       -3.39529340      10.67868670      20.20558326  T      115       0.00083815       0.00114557       0.00416446
O        3.68523750      10.30520422      20.27055731  T      116       0.00593242       0.01428040      -0.00335801
O       -1.81191607       7.45916941      20.61585032  T      117      -0.00818208       0.00123098      -0.00510597
O        0.07328808      10.43691084      20.61814951  T      118       0.00163692      -0.00430089      -0.00053239
O        1.72935866       7.32211496      20.60479443  T      119      -0.00084965      -0.01427513      -0.00404215
O       -6.38263737       8.24086991      21.59018088  T        0       0.01126859      -0.00604790       0.00359979
O       -5.87678218      10.42831426      21.98155593  T        0       0.00765984       0.00170022       0.00703491
C       -5.31598532       8.81002216      23.63688339  T        0       0.01031703       0.01145718      -0.01352036
C       -5.89100034       9.19182902      22.29265963  T        0       0.01531535      -0.00380468      -0.00319290
H       -5.17886676       7.72624979      23.70438316  T        0       0.02258332      -0.00284807       0.00721825
H       -4.37086632       9.34235832      23.79660171  T        0       0.01896233       0.00231176       0.00311470
H       -6.00688984       9.13554714      24.42865677  T        0       0.01238044      -0.00072951       0.01819345
H       -7.42759356      10.60681456      21.05251601  T        0      -0.00312971      -0.00106674      -0.00473109
