130
Lattice="14.567458257780915 0.0 0.0 -7.283729128890462 12.615788919807672 0.0 0.0 0.0 33.04905420593702" Properties=species:S:1:pos:R:3:move_mask:L:1:spacegroup_kinds:I:1:forces:R:3 spacegroup="P 1" unit_cell=conventional occupancy="_JSON {\"0\": {\"O\": 1.0}, \"1\": {\"O\": 1.0}, \"2\": {\"O\": 1.0}, \"3\": {\"O\": 1.0}, \"4\": {\"O\": 1.0}, \"5\": {\"O\": 1.0}, \"6\": {\"O\": 1.0}, \"7\": {\"O\": 1.0}, \"8\": {\"O\": 1.0}, \"9\": {\"O\": 1.0}, \"10\": {\"O\": 1.0}, \"11\": {\"O\": 1.0}, \"12\": {\"In\": 1.0}, \"13\": {\"In\": 1.0}, \"14\": {\"In\": 1.0}, \"15\": {\"In\": 1.0}, \"16\": {\"In\": 1.0}, \"17\": {\"In\": 1.0}, \"18\": {\"In\": 1.0}, \"19\": {\"In\": 1.0}, \"20\": {\"In\": 1.0}, \"21\": {\"In\": 1.0}, \"22\": {\"In\": 1.0}, \"23\": {\"In\": 1.0}, \"24\": {\"In\": 1.0}, \"25\": {\"In\": 1.0}, \"26\": {\"In\": 1.0}, \"27\": {\"In\": 1.0}, \"28\": {\"O\": 1.0}, \"29\": {\"O\": 1.0}, \"30\": {\"O\": 1.0}, \"31\": {\"O\": 1.0}, \"32\": {\"O\": 1.0}, \"33\": {\"O\": 1.0}, \"34\": {\"O\": 1.0}, \"35\": {\"O\": 1.0}, \"36\": {\"O\": 1.0}, \"37\": {\"O\": 1.0}, \"38\": {\"O\": 1.0}, \"39\": {\"O\": 1.0}, \"40\": {\"O\": 1.0}, \"41\": {\"O\": 1.0}, \"42\": {\"O\": 1.0}, \"43\": {\"O\": 1.0}, \"44\": {\"O\": 1.0}, \"45\": {\"O\": 1.0}, \"46\": {\"O\": 1.0}, \"47\": {\"O\": 1.0}, \"48\": {\"O\": 1.0}, \"49\": {\"O\": 1.0}, \"50\": {\"O\": 1.0}, \"51\": {\"O\": 1.0}, \"52\": {\"In\": 1.0}, \"53\": {\"In\": 1.0}, \"54\": {\"In\": 1.0}, \"55\": {\"In\": 1.0}, \"56\": {\"In\": 1.0}, \"57\": {\"In\": 1.0}, \"58\": {\"In\": 1.0}, \"59\": {\"In\": 1.0}, \"60\": {\"In\": 1.0}, \"61\": {\"In\": 1.0}, \"62\": {\"In\": 1.0}, \"63\": {\"In\": 1.0}, \"64\": {\"In\": 1.0}, \"65\": {\"In\": 1.0}, \"66\": {\"In\": 1.0}, \"67\": {\"In\": 1.0}, \"68\": {\"O\": 1.0}, \"69\": {\"O\": 1.0}, \"70\": {\"O\": 1.0}, \"71\": {\"O\": 1.0}, \"72\": {\"O\": 1.0}, \"73\": {\"O\": 1.0}, \"74\": {\"O\": 1.0}, \"75\": {\"O\": 1.0}, \"76\": {\"O\": 1.0}, \"77\": {\"O\": 1.0}, \"78\": {\"O\": 1.0}, \"79\": {\"O\": 1.0}, \"80\": {\"O\": 1.0}, \"81\": {\"O\": 1.0}, \"82\": {\"O\": 1.0}, \"83\": {\"O\": 1.0}, \"84\": {\"O\": 1.0}, \"85\": {\"O\": 1.0}, \"86\": {\"O\": 1.0}, \"87\": {\"O\": 1.0}, \"88\": {\"O\": 1.0}, \"89\": {\"O\": 1.0}, \"90\": {\"O\": 1.0}, \"91\": {\"O\": 1.0}, \"92\": {\"In\": 1.0}, \"93\": {\"In\": 1.0}, \"94\": {\"In\": 1.0}, \"95\": {\"In\": 1.0}, \"96\": {\"In\": 1.0}, \"97\": {\"In\": 1.0}, \"98\": {\"In\": 1.0}, \"99\": {\"In\": 1.0}, \"100\": {\"In\": 1.0}, \"101\": {\"In\": 1.0}, \"102\": {\"In\": 1.0}, \"103\": {\"In\": 1.0}, \"104\": {\"In\": 1.0}, \"105\": {\"In\": 1.0}, \"106\": {\"In\": 1.0}, \"107\": {\"In\": 1.0}, \"108\": {\"O\": 1.0}, \"109\": {\"O\": 1.0}, \"110\": {\"O\": 1.0}, \"111\": {\"O\": 1.0}, \"112\": {\"O\": 1.0}, \"113\": {\"O\": 1.0}, \"114\": {\"O\": 1.0}, \"115\": {\"O\": 1.0}, \"116\": {\"O\": 1.0}, \"117\": {\"O\": 1.0}, \"118\": {\"O\": 1.0}, \"119\": {\"O\": 1.0}}" energy=-717.5879516601562 free_energy=-717.5879516601562 stress="0.006720425561070442 -7.504269888158888e-05 -9.315928036812693e-05 -7.504269888158888e-05 0.006923513952642679 -3.558224125299603e-05 -9.315928036812693e-05 -3.558224125299603e-05 3.627532350947149e-05" pbc="T T T"
O        5.56112551       5.29730098      12.44442493  F        0      -0.01294181       0.01309930      -0.00601780
O        7.19929797       2.16742567      12.44442488  F        1      -0.01006999      -0.02206114      -0.00250483
O        9.09076378       5.15106294      12.44442506  F        2       0.01480946       0.01919265      -0.00241983
O        3.56236441       2.32744963      12.81467041  F        3      -0.01839370      -0.03014188      -0.00810277
O       10.77064547       1.92137361      12.81467059  F        4       0.03065552      -0.00005201      -0.01593798
O        7.51817736       8.36696557      12.81467060  F        5      -0.00239740       0.02197874      -0.01228583
O       -3.86713652       8.43746206      12.95843886  F        6       0.03823580       0.01658022       0.03226271
O        1.91024068       5.04801920      12.95843918  F        7      -0.02589163       0.02436245       0.02205044
O        1.95689587      11.74609578      12.95843921  F        8      -0.02138188      -0.04282440       0.01318640
O       -5.62751792      11.43742505      12.90107995  F        9       0.03158049       0.01035422       0.01338708
O        0.19238766       2.02350350      12.90107932  F       10      -0.00722871       0.01094104       0.00560051
O        5.43512990      11.77064967      12.90107909  F       11       0.00986062      -0.02964229      -0.00103337
In       2.02827288       0.93415595      13.34696164  F       12      -0.00586719       0.02346202       0.00140569
In       5.45297263       1.43044201      13.46548669  F       13       0.03755405       0.06581601      -0.00688954
In       5.79604177       7.17815473      13.46548635  F       14       0.01652895      -0.02625212      -0.00155637
In       7.07859496      10.39217548      13.34696140  F       15      -0.00967874      -0.01328023       0.00764988
In      10.60217256       4.00719198      13.46548647  F       16      -0.05364066      -0.02051920      -0.01714891
In      12.74431985       1.28945811      13.34696112  F       17      -0.02573743      -0.00996222       0.04640193
In      -3.76992867      10.45841758      13.58493911  F       18      -0.02610383       0.00117063      -0.08459857
In       0.11143913       4.12172609      13.58493797  F       19       0.00158420      -0.02399240      -0.03174533
In       7.28372934       4.20526284      13.28077194  F       20       0.01306661      -0.01656378       0.04033840
In       3.65848992      10.65143468      13.58493907  F       21       0.01584763       0.01779438      -0.01525317
In      -2.12514371       7.57248039      13.82744761  F       22      -0.06820422      -0.02178441      -0.13609102
In       1.78834112       6.98912009      13.82744861  F       23       0.04596660      -0.04163618      -0.05374412
In       3.89762555       4.37439996      13.55369945  F       24       0.04777995      -0.01947327       0.01017891
In       0.33680320      10.66997741      13.82744770  F       25       0.05792215       0.06699455      -0.10288067
In       8.83030441       1.18824328      13.55369950  F       26       0.01560208       0.05135173       0.04019310
In       9.12325787       7.05314622      13.55369981  F       27      -0.04602811      -0.03540296      -0.00878111
O        1.94314284       9.09920259      13.79983277  F       28      -0.02736086       0.01288784       0.05063295
O       -0.37515974       6.38337672      13.79983300  F       29      -0.01123437       0.01871333       0.06542692
O       -1.56798334       9.74899853      13.79983313  F       30      -0.01005304      -0.01766485       0.09356385
O       -1.90665604       3.49451490      14.07374983  F       31       0.02955839       0.04063183       0.02327226
O       -3.30406258      12.51974383      14.07375025  F       32       0.01648176      -0.03903720       0.06646912
O        5.21071859       9.21731872      14.07374980  F       33      -0.01317063      -0.00136369       0.00546929
O        6.95268262       0.11029125      14.35625235  F       34      -0.05270562      -0.08391045       0.04546094
O        3.90290295       6.53944318      14.35625252  F       35      -0.03215247       0.02210730       0.00531063
O       10.99560128       5.96605484      14.35625280  F       36       0.07621902       0.03768265       0.05249826
O        5.60077915       3.29585311      14.56420047  F       37      -0.04827748       0.02129567      -0.08359307
O        8.91277589       3.20249084      14.56420075  F       38       0.00318652      -0.00695209      -0.11564976
O        7.33763173       6.11744518      14.56420087  F       39       0.00936711       0.03466345      -0.06079435
O        1.68336921       1.02548187      15.48953070  F       40      -0.00840206      -0.02241767       0.00536235
O       12.83768043       0.94510034      15.48953027  F       41       0.08667479      -0.05158843      -0.06577036
O        7.33013789      10.64520717      15.48953039  F       42       0.03780988      -0.00654120      -0.00476240
O       -3.87048772      10.25806959      15.75644575  F       43       0.15782915      -0.00484192       0.11195646
O        0.33522381       4.13481358      15.75644581  F       44      -0.06984445       0.07281376       0.05855061
O        3.53526358      10.83869431      15.75644572  F       45      -0.08671224      -0.09945689       0.05641244
O        9.24484356       0.74344663      15.94429150  F       46      -0.09296691      -0.23102763      -0.04474697
O        3.30515102       4.23779662      15.94429168  F       47      -0.07581544       0.02132903       0.00594802
O        9.30119327       7.63454631      15.94429132  F       48       0.13353664       0.11706784       0.02011293
O       -1.89390768       7.68105065      15.98554452  F       49       0.00647049       0.04767501       0.25744098
O        1.57869822       7.13509120      15.98554413  F       50      -0.03219414       0.11036786       0.07123750
O        0.31520971      10.41543579      15.98554439  F       51      -0.06939629      -0.04065397       0.12628996
In      -1.57901381       3.03754313      16.29163881  F       52      -0.19248882      -0.30698961       0.05935802
In      -3.86363272      12.46448245      16.29163869  F       53      -0.18547703       0.19919243      -0.10827465
In      -0.30746998       6.17668715      16.39885574  F       54       0.18308640      -0.08249456      -0.56563580
In      -1.78082649       9.79372205      16.39885556  F       55       0.05115027      -0.08713163      -0.25233668
In       2.08829635       9.26116873      16.39885555  F       56       0.07151619      -0.03117829      -0.10179974
In       5.44264624       9.72955081      16.29163837  F       57       0.09250759       0.02522465      -0.04060291
In      14.56745775       0.00000023      16.52452729  F       58      -0.07744287       0.02577144      -0.06285345
In       7.28372884       0.00000046      16.52452727  F       59       0.22813088       0.45428854       0.09967670
In       3.64186448       6.30789445      16.52452688  F       60       0.12171220      -0.12187420      -0.05106983
In      -3.64186467       6.30789479      16.52452729  F       61      -0.52966070      -0.18966049       0.08804593
In       9.06455585       2.82206686      16.65019864  F       62      -0.00958377       0.08583750       0.23425266
In       1.84108280       2.88623741      16.75741682  F       63       0.02744592      -0.02807805      -0.10671902
In       5.19543306       3.35462016      16.65019954  F       64       0.21848491      -0.07717365       0.16495153
In      11.14736129       0.15130547      16.75741597  F       65       0.08821594       0.21308930      -0.32726485
In       7.59119877       6.43910216      16.65019924  F       66       0.08402848      -0.18285784       0.14002745
In       8.86274257       9.57824538      16.75741545  F       67      -0.09575548      -0.06874855      -0.06125524
O        9.17763668       4.93473784      17.06350958  F       68       0.15401852       0.59122175       0.01992260
O        6.96851909       2.20035367      17.06350993  F       69      -0.32492596      -0.43338031       0.34719238
O        5.70503103       5.48069763      17.06350990  F       70      -0.25849587       0.04284998      -0.14330891
O       -2.01746347       4.98124236      17.10476289  F       71       0.16411671       0.24691653       0.25129920
O       -1.96111486      11.87234229      17.10476307  F       72      -0.10057413      -0.16668826      -0.02166758
O        3.97857827       8.37799246      17.10476382  F       73      -0.23391120       0.11178432       0.21375370
O        6.94850543       8.48097521      17.29260816  F       74      -0.07798058       0.23990962      -0.11282060
O       11.15421650       2.35771879      17.29260829  F       75       0.50087857      -0.17784467       0.23471917
O        3.74846506       1.77709453      17.29260778  F       76      -0.18878527      -0.09501126      -0.15559268
O       -0.04640858       1.97058198      17.55952389  F       77       0.05509710       0.04821843      -0.08532782
O       -5.55395094      11.67068958      17.55952349  F       78       0.06930434      -0.06243004       0.03968735
O        5.60035973      11.59030666      17.55952404  F       79       0.11814751      -0.12335750      -0.04968099
O       -1.58124227       9.43506007      18.51853069  T       80      -0.00881901       0.00703828      -0.02131885
O        1.62811041       9.33210021      18.51340295  T       81       0.00681254       0.00637773       0.00505537
O        0.00829904       6.49582973      18.45835233  T       82      -0.00270714       0.00087275      -0.01298511
O        3.36415164       6.09746523      18.70045086  T       83       0.00436933       0.00409794      -0.00121033
O       -3.71031143       6.58752177      18.74844120  T       84      -0.00335076      -0.00530536       0.00413012
O        0.28854771      12.40836795      18.75034984  T       85      -0.00408274      -0.00059462      -0.00197503
O        9.21228375       9.11323544      18.97386727  T       86      -0.00991045      -0.00117528      -0.01159954
O        2.04547320       3.40367824      18.97694573  T       87      -0.00265205      -0.00402924      -0.00451168
O       10.60254194      -0.00305795      18.89891879  T       88       0.01353532      -0.00163806      -0.00951309
O        8.94184511       2.85945800      18.90959153  T       89      -0.00587514      -0.00596481       0.00513533
O        5.29996706       3.52727461      19.19893007  T       90       0.00607566      -0.01756948      -0.01016939
O        7.61338162       6.29782391      19.12010408  T       91      -0.00199091       0.00603822      -0.01485431
In      -1.76709112       5.60509097      19.39588869  T       92       0.01643661      -0.00267290      -0.00001209
In      -1.67941030      11.49975588      19.35349436  T       93      -0.00305246      -0.00786375      -0.00541984
In       6.97129477       1.99702329      19.32424820  T       94      -0.01548244      -0.00176123      -0.00273128
In       3.39411513       8.22479890      19.51425102  T       95       0.00837480      -0.00122704       0.00397913
In       5.48990071       5.62510029      19.21654211  T       96       0.00246164       0.00908533       0.00022323
In       9.30144780       5.01440986      19.28620541  T       97       0.01061784      -0.00696513      -0.00100241
In       0.01297821       8.33890821      19.70405332  T       98       0.01663339       0.00021243      -0.01301067
In       3.59526802       1.99321703      19.44869775  T       99       0.01976009       0.00128537      -0.00677827
In      10.92762392       2.01510324      19.53384968  T      100       0.01012450       0.00083219      -0.00966161
In       7.17034385       8.47433385      19.44950234  T      101      -0.00915376      -0.01297434       0.00525920
In      -5.47335839      11.32795237      19.69788585  T      102       0.00768999      -0.00025020       0.00482190
In      -3.33540246       8.58807960      19.59753446  T      103       0.00963152       0.00577644       0.00979494
In       0.16474542       2.21357541      19.69153031  T      104      -0.00060137       0.01603394      -0.00086538
In       1.52349193       5.41247582      19.62370060  T      105      -0.01196402       0.00968121       0.01173200
In       1.88082222      11.20555404      19.54425616  T      106      -0.01456702       0.00130735       0.00166983
In       5.27435390      11.64741024      19.69346242  T      107      -0.00106083       0.00582125      -0.00039512
O        1.81770288       0.84650155      20.13411148  T      108      -0.00595222       0.00256370      -0.00132763
O        7.09556312      10.55945985      20.15141047  T      109      -0.00964576       0.00974651      -0.00516135
O       12.88652029       1.14654201      20.07974319  T      110      -0.00196441      -0.00962450       0.00826567
O        5.36231455       7.55646649      20.11777138  T      111       0.00234671       0.00795726      -0.00329751
O       11.33253519       4.14901123      20.04206236  T      112       0.00554785       0.00262894      -0.00219488
O        5.25611902       0.85885644      19.97903109  T      113      -0.01026991       0.00533677       0.00304976
O       -0.24146884       4.27110005      20.23616407  T      114       0.00550906      -0.00781199      -0.00813460
O       -3.48238905      10.67350604      20.24575213  T      115      -0.01170288       0.00236773      -0.01176727
O        3.69651649      10.26963260      20.27168192  T      116       0.00739548       0.00493140      -0.00460738
O       -1.77378053       7.46960699      20.58703116  T      117      -0.01018976      -0.00338423      -0.00269055
O        0.10178345      10.43348496      20.72293896  T      118       0.00379295      -0.00689641       0.00002480
O        1.70455556       7.32425221      20.62616128  T      119       0.00657634       0.00124441       0.00021005
P        8.79669036       2.98183137      21.84378358  T        0       0.00654489       0.00367850      -0.01045638
O       10.05029421       2.11705245      21.54068116  T        0       0.00829232       0.00502884       0.01041715
O        8.94771132       4.46271116      21.39050335  T        0      -0.00330192      -0.00121760      -0.00128280
O        7.48427394       2.31873438      21.38170767  T        0      -0.00950354      -0.00763246       0.00721574
C        8.63606302       3.04044996      23.65096034  T        0       0.01144538       0.00941871      -0.00805700
H        8.45972492       2.02689779      24.02656800  T        0       0.01186552       0.00132138      -0.01151431
H        9.54721526       3.44957252      24.09965648  T        0       0.01309839       0.00029526      -0.00565247
H        7.78281817       3.67990261      23.90112809  T        0       0.00273031       0.00180501       0.00767896
H       11.18532657       4.14027590      21.01269804  T        0       0.02029069      -0.01569025      -0.00025183
H        7.37618796      -2.16840083      21.69681961  T        0      -0.00319579      -0.00123088      -0.00269246
