130
Lattice="14.567458257780915 0.0 0.0 -7.283729128890462 12.615788919807672 0.0 0.0 0.0 33.04905420593702" Properties=species:S:1:pos:R:3:move_mask:L:1:spacegroup_kinds:I:1:forces:R:3 spacegroup="P 1" unit_cell=conventional occupancy="_JSON {\"0\": {\"O\": 1.0}, \"1\": {\"O\": 1.0}, \"2\": {\"O\": 1.0}, \"3\": {\"O\": 1.0}, \"4\": {\"O\": 1.0}, \"5\": {\"O\": 1.0}, \"6\": {\"O\": 1.0}, \"7\": {\"O\": 1.0}, \"8\": {\"O\": 1.0}, \"9\": {\"O\": 1.0}, \"10\": {\"O\": 1.0}, \"11\": {\"O\": 1.0}, \"12\": {\"In\": 1.0}, \"13\": {\"In\": 1.0}, \"14\": {\"In\": 1.0}, \"15\": {\"In\": 1.0}, \"16\": {\"In\": 1.0}, \"17\": {\"In\": 1.0}, \"18\": {\"In\": 1.0}, \"19\": {\"In\": 1.0}, \"20\": {\"In\": 1.0}, \"21\": {\"In\": 1.0}, \"22\": {\"In\": 1.0}, \"23\": {\"In\": 1.0}, \"24\": {\"In\": 1.0}, \"25\": {\"In\": 1.0}, \"26\": {\"In\": 1.0}, \"27\": {\"In\": 1.0}, \"28\": {\"O\": 1.0}, \"29\": {\"O\": 1.0}, \"30\": {\"O\": 1.0}, \"31\": {\"O\": 1.0}, \"32\": {\"O\": 1.0}, \"33\": {\"O\": 1.0}, \"34\": {\"O\": 1.0}, \"35\": {\"O\": 1.0}, \"36\": {\"O\": 1.0}, \"37\": {\"O\": 1.0}, \"38\": {\"O\": 1.0}, \"39\": {\"O\": 1.0}, \"40\": {\"O\": 1.0}, \"41\": {\"O\": 1.0}, \"42\": {\"O\": 1.0}, \"43\": {\"O\": 1.0}, \"44\": {\"O\": 1.0}, \"45\": {\"O\": 1.0}, \"46\": {\"O\": 1.0}, \"47\": {\"O\": 1.0}, \"48\": {\"O\": 1.0}, \"49\": {\"O\": 1.0}, \"50\": {\"O\": 1.0}, \"51\": {\"O\": 1.0}, \"52\": {\"In\": 1.0}, \"53\": {\"In\": 1.0}, \"54\": {\"In\": 1.0}, \"55\": {\"In\": 1.0}, \"56\": {\"In\": 1.0}, \"57\": {\"In\": 1.0}, \"58\": {\"In\": 1.0}, \"59\": {\"In\": 1.0}, \"60\": {\"In\": 1.0}, \"61\": {\"In\": 1.0}, \"62\": {\"In\": 1.0}, \"63\": {\"In\": 1.0}, \"64\": {\"In\": 1.0}, \"65\": {\"In\": 1.0}, \"66\": {\"In\": 1.0}, \"67\": {\"In\": 1.0}, \"68\": {\"O\": 1.0}, \"69\": {\"O\": 1.0}, \"70\": {\"O\": 1.0}, \"71\": {\"O\": 1.0}, \"72\": {\"O\": 1.0}, \"73\": {\"O\": 1.0}, \"74\": {\"O\": 1.0}, \"75\": {\"O\": 1.0}, \"76\": {\"O\": 1.0}, \"77\": {\"O\": 1.0}, \"78\": {\"O\": 1.0}, \"79\": {\"O\": 1.0}, \"80\": {\"O\": 1.0}, \"81\": {\"O\": 1.0}, \"82\": {\"O\": 1.0}, \"83\": {\"O\": 1.0}, \"84\": {\"O\": 1.0}, \"85\": {\"O\": 1.0}, \"86\": {\"O\": 1.0}, \"87\": {\"O\": 1.0}, \"88\": {\"O\": 1.0}, \"89\": {\"O\": 1.0}, \"90\": {\"O\": 1.0}, \"91\": {\"O\": 1.0}, \"92\": {\"In\": 1.0}, \"93\": {\"In\": 1.0}, \"94\": {\"In\": 1.0}, \"95\": {\"In\": 1.0}, \"96\": {\"In\": 1.0}, \"97\": {\"In\": 1.0}, \"98\": {\"In\": 1.0}, \"99\": {\"In\": 1.0}, \"100\": {\"In\": 1.0}, \"101\": {\"In\": 1.0}, \"102\": {\"In\": 1.0}, \"103\": {\"In\": 1.0}, \"104\": {\"In\": 1.0}, \"105\": {\"In\": 1.0}, \"106\": {\"In\": 1.0}, \"107\": {\"In\": 1.0}, \"108\": {\"O\": 1.0}, \"109\": {\"O\": 1.0}, \"110\": {\"O\": 1.0}, \"111\": {\"O\": 1.0}, \"112\": {\"O\": 1.0}, \"113\": {\"O\": 1.0}, \"114\": {\"O\": 1.0}, \"115\": {\"O\": 1.0}, \"116\": {\"O\": 1.0}, \"117\": {\"O\": 1.0}, \"118\": {\"O\": 1.0}, \"119\": {\"O\": 1.0}}" energy=-716.510498046875 free_energy=-716.510498046875 stress="0.007304488681256771 -0.00010265006130794063 0.00011821018415503204 -0.00010265006130794063 0.007051299326121807 2.9539174647652544e-05 0.00011821018415503204 2.9539174647652544e-05 -1.7931761249201372e-05" pbc="T T T"
O        5.56112551       5.29730098      12.44442493  F        0      -0.03041463      -0.00054008       0.00290680
O        7.19929797       2.16742567      12.44442488  F        1      -0.02976622      -0.03261450      -0.00298393
O        9.09076378       5.15106294      12.44442506  F        2      -0.02415919      -0.00834072      -0.03247809
O        3.56236441       2.32744963      12.81467041  F        3       0.00130117      -0.01401246       0.00385892
O       10.77064547       1.92137361      12.81467059  F        4       0.00297485      -0.03544995      -0.03374779
O        7.51817736       8.36696557      12.81467060  F        5      -0.02994979       0.03001416      -0.01298290
O       -3.86713652       8.43746206      12.95843886  F        6       0.03461327       0.06379122      -0.01189601
O        1.91024068       5.04801920      12.95843918  F        7       0.03377149       0.02300260       0.00355798
O        1.95689587      11.74609578      12.95843921  F        8      -0.02122265      -0.03198385       0.03594273
O       -5.62751792      11.43742505      12.90107995  F        9       0.02389655       0.02535549       0.01050299
O        0.19238766       2.02350350      12.90107932  F       10       0.01841666      -0.02852178      -0.00932199
O        5.43512990      11.77064967      12.90107909  F       11      -0.00343270      -0.03478565       0.01101762
In       2.02827288       0.93415595      13.34696164  F       12      -0.01890577       0.02055646      -0.03021933
In       5.45297263       1.43044201      13.46548669  F       13       0.01659616       0.03513710      -0.05472162
In       5.79604177       7.17815473      13.46548635  F       14       0.06522454      -0.03744488      -0.02678560
In       7.07859496      10.39217548      13.34696140  F       15       0.01417107      -0.01766698      -0.00190669
In      10.60217256       4.00719198      13.46548647  F       16       0.04650383       0.07376273       0.09924740
In      12.74431985       1.28945811      13.34696112  F       17      -0.01944552       0.06840973       0.02008761
In      -3.76992867      10.45841758      13.58493911  F       18      -0.02357703      -0.04654786      -0.00817995
In       0.11143913       4.12172609      13.58493797  F       19      -0.08007675      -0.00073027       0.07347581
In       7.28372934       4.20526284      13.28077194  F       20       0.06795932       0.02181212       0.03236125
In       3.65848992      10.65143468      13.58493907  F       21       0.01318236       0.01420460      -0.07640749
In      -2.12514371       7.57248039      13.82744761  F       22      -0.08921549      -0.11312602       0.04515581
In       1.78834112       6.98912009      13.82744861  F       23      -0.03747011      -0.06169772      -0.04476662
In       3.89762555       4.37439996      13.55369945  F       24       0.02433731      -0.00952513      -0.06392144
In       0.33680320      10.66997741      13.82744770  F       25       0.01441444       0.02833389      -0.14562480
In       8.83030441       1.18824328      13.55369950  F       26       0.03362913       0.08942145       0.00687061
In       9.12325787       7.05314622      13.55369981  F       27       0.04958781      -0.05558474       0.06818460
O        1.94314284       9.09920259      13.79983277  F       28       0.00201219       0.05098021       0.06198674
O       -0.37515974       6.38337672      13.79983300  F       29       0.06381559       0.03208885      -0.02751613
O       -1.56798334       9.74899853      13.79983313  F       30       0.02337128       0.04334396       0.03360301
O       -1.90665604       3.49451490      14.07374983  F       31       0.03143274      -0.05479419      -0.16219981
O       -3.30406258      12.51974383      14.07375025  F       32       0.01950866       0.01172373       0.06679156
O        5.21071859       9.21731872      14.07374980  F       33      -0.04285398       0.00329018       0.05887427
O        6.95268262       0.11029125      14.35625235  F       34      -0.02764574      -0.04848067       0.06851435
O        3.90290295       6.53944318      14.35625252  F       35      -0.00504088       0.03003520       0.08224341
O       10.99560128       5.96605484      14.35625280  F       36      -0.01055756       0.08267975      -0.17249706
O        5.60077915       3.29585311      14.56420047  F       37      -0.05435698      -0.00955898       0.02727848
O        8.91277589       3.20249084      14.56420075  F       38      -0.06165262      -0.09372173      -0.10716075
O        7.33763173       6.11744518      14.56420087  F       39      -0.05029464       0.00940854      -0.08584011
O        1.68336921       1.02548187      15.48953070  F       40       0.06209701      -0.01211096       0.06612529
O       12.83768043       0.94510034      15.48953027  F       41       0.04546819      -0.06137806       0.02531570
O        7.33013789      10.64520717      15.48953039  F       42       0.03032590       0.07007344       0.01390155
O       -3.87048772      10.25806959      15.75644575  F       43       0.04782801       0.13146248       0.01860690
O        0.33522381       4.13481358      15.75644581  F       44       0.25215411      -0.06985870      -0.01257346
O        3.53526358      10.83869431      15.75644572  F       45      -0.06311905      -0.13856682       0.12415257
O        9.24484356       0.74344663      15.94429150  F       46      -0.04346435      -0.10737041       0.00529912
O        3.30515102       4.23779662      15.94429168  F       47      -0.03132164       0.01240911       0.14903630
O        9.30119327       7.63454631      15.94429132  F       48       0.09770589       0.15894791      -0.01036417
O       -1.89390768       7.68105065      15.98554452  F       49       0.13858418       0.32690668       0.13310422
O        1.57869822       7.13509120      15.98554413  F       50       0.20803468       0.13758090      -0.07408117
O        0.31520971      10.41543579      15.98554439  F       51      -0.06119335      -0.10306840       0.28266555
In      -1.57901381       3.03754313      16.29163881  F       52      -0.27050889       0.50193316       0.18400294
In      -3.86363272      12.46448245      16.29163869  F       53      -0.11996292      -0.01006642      -0.22681157
In      -0.30746998       6.17668715      16.39885574  F       54      -0.54139704      -0.33509281       0.44368297
In      -1.78082649       9.79372205      16.39885556  F       55      -0.34993550      -0.27258274      -0.09225135
In       2.08829635       9.26116873      16.39885555  F       56      -0.06379141      -0.04779053      -0.35846159
In       5.44264624       9.72955081      16.29163837  F       57       0.31523782       0.04241418      -0.10452092
In      14.56745775       0.00000023      16.52452729  F       58      -0.07974105       0.06892329      -0.17487402
In       7.28372884       0.00000046      16.52452727  F       59       0.19902562       0.24550331      -0.29874781
In       3.64186448       6.30789445      16.52452688  F       60       0.02682207      -0.23864752      -0.10779119
In      -3.64186467       6.30789479      16.52452729  F       61       0.19800511      -0.50360876       0.85737485
In       9.06455585       2.82206686      16.65019864  F       62       0.17697389       0.41405612       0.17644498
In       1.84108280       2.88623741      16.75741682  F       63      -0.17373909      -0.00172894      -0.28586662
In       5.19543306       3.35462016      16.65019954  F       64       0.14234209       0.12746347      -0.17434461
In      11.14736129       0.15130547      16.75741597  F       65       0.01608619       0.16350484      -0.22165458
In       7.59119877       6.43910216      16.65019924  F       66       0.30035302      -0.19528452       0.21528624
In       8.86274257       9.57824538      16.75741545  F       67       0.05684396      -0.18152177      -0.21607488
O        9.17763668       4.93473784      17.06350958  F       68       0.10551751      -0.10709491       0.27947161
O        6.96851909       2.20035367      17.06350993  F       69      -0.21460482      -0.08862671       0.01834209
O        5.70503103       5.48069763      17.06350990  F       70      -0.66572523      -0.21163875      -0.11403136
O       -2.01746347       4.98124236      17.10476289  F       71       0.33972713       0.08745438      -0.72021019
O       -1.96111486      11.87234229      17.10476307  F       72       0.07972521       0.04502612       0.15514208
O        3.97857827       8.37799246      17.10476382  F       73      -0.01603842       0.04490390       0.18338998
O        6.94850543       8.48097521      17.29260816  F       74      -0.08007410       0.40969431       0.02907929
O       11.15421650       2.35771879      17.29260829  F       75      -0.01543771      -0.45125777      -0.24204643
O        3.74846506       1.77709453      17.29260778  F       76      -0.01133472      -0.02293891       0.12790696
O       -0.04640858       1.97058198      17.55952389  F       77       0.07416508      -0.01696976       0.19394398
O       -5.55395094      11.67068958      17.55952349  F       78       0.02385616       0.21542852      -0.01637843
O        5.60035973      11.59030666      17.55952404  F       79       0.00596624      -0.07605575       0.07374056
O       -1.83667427       9.49195462      18.54262689  T       80      -0.00978830      -0.00599457       0.00170928
O        1.70612658       9.29638979      18.50254249  T       81       0.00784793      -0.01338450      -0.01658717
O        0.10881005       6.60525107      18.46218911  T       82      -0.00738066       0.00274981      -0.01342019
O        3.35869632       6.12906602      18.74430822  T       83      -0.00561428       0.00076911       0.00529084
O       -3.68676538       6.60838901      18.76688928  T       84       0.00876065      -0.00990328       0.01068571
O        0.36585414      12.49994718      18.67631683  T       85       0.00624287      -0.00209084       0.00532223
O        9.25042071       9.25298475      18.95432120  T       86      -0.00345331       0.00829908      -0.00479445
O        2.04727795       3.38691349      18.97550421  T       87      -0.00217757       0.02108029      -0.00684340
O       10.60647089       0.03997232      18.98108037  T       88      -0.00903726      -0.00382929       0.00384022
O        8.85407043       2.83980138      19.21213915  T       89       0.00558358       0.00122887       0.00936973
O        5.32377330       3.51002996      19.27952520  T       90      -0.01091649       0.00949150       0.00484204
O        7.61929295       6.28697121      18.99790790  T       91      -0.00419785      -0.00332382      -0.02144423
In      -1.96901734       5.56078870      20.19947676  T       92       0.00646825       0.01355535       0.00137411
In      -1.48331405      11.46376224      19.41435918  T       93       0.01199849      -0.00849442      -0.00076916
In       6.96045055       1.96616166      19.22114826  T       94      -0.00072238      -0.00073431      -0.00030660
In       3.52686214       8.28291432      19.39022957  T       95      -0.00808395       0.00920152       0.01175768
In       5.54244662       5.62507072      19.21747548  T       96      -0.00178471       0.00806727       0.00622554
In       9.40114822       5.04894773      19.32442334  T       97      -0.00480133      -0.00490549      -0.00098778
In      -0.06018393       8.48047070      19.57556346  T       98       0.00297961      -0.00199939      -0.00183533
In       3.62792297       1.96964301      19.45393771  T       99       0.00820513       0.00656698       0.00362466
In      11.05752043       2.08406404      19.43228035  T      100      -0.00815298       0.01258302       0.00248785
In       7.26797081       8.42420923      19.46645767  T      101       0.00281481       0.00812534       0.00401399
In      -5.60053259      11.35797577      19.68163437  T      102       0.00159634       0.00621193       0.00706176
In      -3.44749732       8.46216560      19.79978610  T      103       0.00880969      -0.01427069       0.00311147
In       0.16884660       2.24926563      19.70699083  T      104       0.00313896       0.00498646      -0.01000047
In       1.45498075       5.39859062      19.51449684  T      105       0.00624176      -0.01185098       0.00342867
In       1.85912111      11.18581499      19.60628929  T      106      -0.02249539      -0.00483640       0.00151685
In       5.26850247      11.65397557      19.69924303  T      107       0.00805522      -0.00789179       0.00770107
O        1.84558698       0.84309106      20.14042120  T      108       0.00057593      -0.00100803      -0.00085294
O        7.05714807      10.52788904      20.17454249  T      109      -0.00727833      -0.01262414       0.00159085
O       12.94354283       1.12640117      20.15665708  T      110      -0.00572667       0.00533734      -0.00314403
O        5.41722178       7.55490294      20.12570859  T      111      -0.00603790      -0.01488950      -0.00525033
O       11.22161224       4.03154901      19.94133278  T      112      -0.01933497      -0.01110703       0.00434867
O        5.33299589       0.84027983      20.05952213  T      113      -0.01107129      -0.00255383      -0.00681087
O       -0.17972526       4.29364444      20.40183463  T      114       0.00542638       0.01296008       0.00607526
O       -3.52825330      10.78690219      20.45594917  T      115      -0.00614010       0.00544664       0.00925463
O        3.72850768      10.25236165      20.25992406  T      116       0.00232738       0.01533684       0.00491196
O       -1.61924235       7.60723360      20.64926293  T      117      -0.00489539       0.00330158      -0.02223682
O        0.08921556      10.44859372      20.56411441  T      118      -0.00573847       0.00903252       0.00358403
O        1.76644624       7.34258208      20.67696948  T      119      -0.00154077      -0.00835401       0.00203955
P       -4.55544679       6.45652591      22.09545880  T        0      -0.01141393      -0.01318455       0.02306789
O       -4.63155897       7.91324521      21.54412925  T        0       0.00703084       0.00612473      -0.00448340
O       -5.59314607       5.55081053      21.40040246  T        0      -0.01283157       0.00761384      -0.00108086
O       -3.14453724       5.86318012      22.06576815  T        0       0.00736368      -0.00376251       0.00006205
C       -5.07789377       6.56036434      23.84251890  T        0       0.00367936       0.01683006      -0.01966843
H       -4.19933976       6.74929818      24.46701042  T        0      -0.00338489       0.00455699      -0.00069849
H       -5.79853279       7.37920613      23.94515578  T        0      -0.00247478      -0.01496899      -0.01866129
H       -5.54629413       5.60924138      24.11465760  T        0       0.01302399       0.00891894       0.01427867
H       -3.44726026      10.90526129      21.42268840  T        0      -0.01805498       0.00035605      -0.01407874
H        1.73952104       7.38857457      21.64869507  T        0       0.00422206      -0.00541983       0.00514323
