130
Lattice="14.567458257780915 0.0 0.0 -7.283729128890462 12.615788919807672 0.0 0.0 0.0 33.04905420593702" Properties=species:S:1:pos:R:3:move_mask:L:1:spacegroup_kinds:I:1:forces:R:3 spacegroup="P 1" unit_cell=conventional occupancy="_JSON {\"0\": {\"O\": 1.0}, \"1\": {\"O\": 1.0}, \"2\": {\"O\": 1.0}, \"3\": {\"O\": 1.0}, \"4\": {\"O\": 1.0}, \"5\": {\"O\": 1.0}, \"6\": {\"O\": 1.0}, \"7\": {\"O\": 1.0}, \"8\": {\"O\": 1.0}, \"9\": {\"O\": 1.0}, \"10\": {\"O\": 1.0}, \"11\": {\"O\": 1.0}, \"12\": {\"In\": 1.0}, \"13\": {\"In\": 1.0}, \"14\": {\"In\": 1.0}, \"15\": {\"In\": 1.0}, \"16\": {\"In\": 1.0}, \"17\": {\"In\": 1.0}, \"18\": {\"In\": 1.0}, \"19\": {\"In\": 1.0}, \"20\": {\"In\": 1.0}, \"21\": {\"In\": 1.0}, \"22\": {\"In\": 1.0}, \"23\": {\"In\": 1.0}, \"24\": {\"In\": 1.0}, \"25\": {\"In\": 1.0}, \"26\": {\"In\": 1.0}, \"27\": {\"In\": 1.0}, \"28\": {\"O\": 1.0}, \"29\": {\"O\": 1.0}, \"30\": {\"O\": 1.0}, \"31\": {\"O\": 1.0}, \"32\": {\"O\": 1.0}, \"33\": {\"O\": 1.0}, \"34\": {\"O\": 1.0}, \"35\": {\"O\": 1.0}, \"36\": {\"O\": 1.0}, \"37\": {\"O\": 1.0}, \"38\": {\"O\": 1.0}, \"39\": {\"O\": 1.0}, \"40\": {\"O\": 1.0}, \"41\": {\"O\": 1.0}, \"42\": {\"O\": 1.0}, \"43\": {\"O\": 1.0}, \"44\": {\"O\": 1.0}, \"45\": {\"O\": 1.0}, \"46\": {\"O\": 1.0}, \"47\": {\"O\": 1.0}, \"48\": {\"O\": 1.0}, \"49\": {\"O\": 1.0}, \"50\": {\"O\": 1.0}, \"51\": {\"O\": 1.0}, \"52\": {\"In\": 1.0}, \"53\": {\"In\": 1.0}, \"54\": {\"In\": 1.0}, \"55\": {\"In\": 1.0}, \"56\": {\"In\": 1.0}, \"57\": {\"In\": 1.0}, \"58\": {\"In\": 1.0}, \"59\": {\"In\": 1.0}, \"60\": {\"In\": 1.0}, \"61\": {\"In\": 1.0}, \"62\": {\"In\": 1.0}, \"63\": {\"In\": 1.0}, \"64\": {\"In\": 1.0}, \"65\": {\"In\": 1.0}, \"66\": {\"In\": 1.0}, \"67\": {\"In\": 1.0}, \"68\": {\"O\": 1.0}, \"69\": {\"O\": 1.0}, \"70\": {\"O\": 1.0}, \"71\": {\"O\": 1.0}, \"72\": {\"O\": 1.0}, \"73\": {\"O\": 1.0}, \"74\": {\"O\": 1.0}, \"75\": {\"O\": 1.0}, \"76\": {\"O\": 1.0}, \"77\": {\"O\": 1.0}, \"78\": {\"O\": 1.0}, \"79\": {\"O\": 1.0}, \"80\": {\"O\": 1.0}, \"81\": {\"O\": 1.0}, \"82\": {\"O\": 1.0}, \"83\": {\"O\": 1.0}, \"84\": {\"O\": 1.0}, \"85\": {\"O\": 1.0}, \"86\": {\"O\": 1.0}, \"87\": {\"O\": 1.0}, \"88\": {\"O\": 1.0}, \"89\": {\"O\": 1.0}, \"90\": {\"O\": 1.0}, \"91\": {\"O\": 1.0}, \"92\": {\"In\": 1.0}, \"93\": {\"In\": 1.0}, \"94\": {\"In\": 1.0}, \"95\": {\"In\": 1.0}, \"96\": {\"In\": 1.0}, \"97\": {\"In\": 1.0}, \"98\": {\"In\": 1.0}, \"99\": {\"In\": 1.0}, \"100\": {\"In\": 1.0}, \"101\": {\"In\": 1.0}, \"102\": {\"In\": 1.0}, \"103\": {\"In\": 1.0}, \"104\": {\"In\": 1.0}, \"105\": {\"In\": 1.0}, \"106\": {\"In\": 1.0}, \"107\": {\"In\": 1.0}, \"108\": {\"O\": 1.0}, \"109\": {\"O\": 1.0}, \"110\": {\"O\": 1.0}, \"111\": {\"O\": 1.0}, \"112\": {\"O\": 1.0}, \"113\": {\"O\": 1.0}, \"114\": {\"O\": 1.0}, \"115\": {\"O\": 1.0}, \"116\": {\"O\": 1.0}, \"117\": {\"O\": 1.0}, \"118\": {\"O\": 1.0}, \"119\": {\"O\": 1.0}}" energy=-717.041015625 free_energy=-717.041015625 stress="0.006900118663907051 0.00012898302520625293 2.5860030291369185e-05 0.00012898302520625293 0.006660670507699251 -1.944818905030843e-05 2.5860030291369185e-05 -1.944818905030843e-05 -3.7237023207126185e-05" pbc="T T T"
O        5.56112551       5.29730098      12.44442493  F        0      -0.00744577      -0.00156882      -0.01162350
O        7.19929797       2.16742567      12.44442488  F        1       0.00264498      -0.02057156      -0.00130296
O        9.09076378       5.15106294      12.44442506  F        2       0.02302125      -0.00311254      -0.00745177
O        3.56236441       2.32744963      12.81467041  F        3      -0.02019006      -0.03575211      -0.00714076
O       10.77064547       1.92137361      12.81467059  F        4       0.02855673      -0.00320128      -0.00255668
O        7.51817736       8.36696557      12.81467060  F        5      -0.00390750       0.03601235      -0.01816189
O       -3.86713652       8.43746206      12.95843886  F        6       0.03996272       0.01506764       0.01946819
O        1.91024068       5.04801920      12.95843918  F        7      -0.04197183       0.01581197       0.00667727
O        1.95689587      11.74609578      12.95843921  F        8      -0.01657224      -0.02435444       0.01382554
O       -5.62751792      11.43742505      12.90107995  F        9       0.02734300       0.01847234       0.01017880
O        0.19238766       2.02350350      12.90107932  F       10      -0.01957989       0.00642060       0.01699728
O        5.43512990      11.77064967      12.90107909  F       11       0.00574964      -0.00861304       0.00353932
In       2.02827288       0.93415595      13.34696164  F       12       0.00368007       0.01880643      -0.02199391
In       5.45297263       1.43044201      13.46548669  F       13       0.03032491       0.06235616      -0.02372168
In       5.79604177       7.17815473      13.46548635  F       14       0.00256784      -0.04504266       0.03217879
In       7.07859496      10.39217548      13.34696140  F       15      -0.00752290      -0.02983981       0.01367606
In      10.60217256       4.00719198      13.46548647  F       16      -0.05284400       0.01234526      -0.02374378
In      12.74431985       1.28945811      13.34696112  F       17      -0.01619428      -0.00838400      -0.01666483
In      -3.76992867      10.45841758      13.58493911  F       18      -0.02186883      -0.01667491      -0.04423422
In       0.11143913       4.12172609      13.58493797  F       19       0.02547245      -0.00105905      -0.03290218
In       7.28372934       4.20526284      13.28077194  F       20      -0.01132588       0.02903397       0.03863445
In       3.65848992      10.65143468      13.58493907  F       21       0.01526698      -0.00606077       0.00510211
In      -2.12514371       7.57248039      13.82744761  F       22      -0.06112111      -0.01612029      -0.07381195
In       1.78834112       6.98912009      13.82744861  F       23       0.06858861      -0.04535535      -0.01689193
In       3.89762555       4.37439996      13.55369945  F       24       0.03533694       0.02047312       0.03422589
In       0.33680320      10.66997741      13.82744770  F       25       0.04507639       0.03996524      -0.08522658
In       8.83030441       1.18824328      13.55369950  F       26      -0.00619126       0.04093914      -0.03036749
In       9.12325787       7.05314622      13.55369981  F       27      -0.05840813      -0.03248286       0.00913225
O        1.94314284       9.09920259      13.79983277  F       28      -0.03045334       0.02885818       0.01836306
O       -0.37515974       6.38337672      13.79983300  F       29      -0.00619251      -0.00226960       0.03779420
O       -1.56798334       9.74899853      13.79983313  F       30      -0.00674051      -0.00783253       0.05877170
O       -1.90665604       3.49451490      14.07374983  F       31       0.00655095       0.01038587       0.05970117
O       -3.30406258      12.51974383      14.07375025  F       32       0.00681189      -0.01573485       0.07107155
O        5.21071859       9.21731872      14.07374980  F       33      -0.01544687       0.02481878      -0.02696523
O        6.95268262       0.11029125      14.35625235  F       34      -0.02490082      -0.04526977       0.05419592
O        3.90290295       6.53944318      14.35625252  F       35      -0.05040685       0.02179438      -0.05762052
O       10.99560128       5.96605484      14.35625280  F       36       0.06216466       0.00465670       0.02653344
O        5.60077915       3.29585311      14.56420047  F       37      -0.02689863      -0.04509413      -0.07886332
O        8.91277589       3.20249084      14.56420075  F       38       0.03028938      -0.04411216      -0.05740047
O        7.33763173       6.11744518      14.56420087  F       39       0.05154075       0.02455917      -0.13733673
O        1.68336921       1.02548187      15.48953070  F       40      -0.02182975      -0.01187195       0.04739276
O       12.83768043       0.94510034      15.48953027  F       41       0.01911462       0.00250010       0.02843255
O        7.33013789      10.64520717      15.48953039  F       42       0.03702825       0.09492684      -0.01353581
O       -3.87048772      10.25806959      15.75644575  F       43       0.07273144       0.04859057       0.06873901
O        0.33522381       4.13481358      15.75644581  F       44      -0.08282781       0.02102796       0.05387190
O        3.53526358      10.83869431      15.75644572  F       45      -0.01841542       0.00873101      -0.00039591
O        9.24484356       0.74344663      15.94429150  F       46      -0.01478092      -0.13803577       0.06007034
O        3.30515102       4.23779662      15.94429168  F       47      -0.17801714      -0.09590752      -0.04941975
O        9.30119327       7.63454631      15.94429132  F       48       0.23070972       0.08569562       0.01660196
O       -1.89390768       7.68105065      15.98554452  F       49      -0.04672743      -0.08736835       0.10587040
O        1.57869822       7.13509120      15.98554413  F       50      -0.04007155       0.03056695       0.02668034
O        0.31520971      10.41543579      15.98554439  F       51      -0.09651419       0.08691116       0.14102046
In      -1.57901381       3.03754313      16.29163881  F       52       0.00587782      -0.12397842      -0.14606692
In      -3.86363272      12.46448245      16.29163869  F       53      -0.14084488       0.06370780      -0.13045931
In      -0.30746998       6.17668715      16.39885574  F       54       0.16415940       0.04216709      -0.27302882
In      -1.78082649       9.79372205      16.39885556  F       55      -0.04160489      -0.12750900      -0.29202384
In       2.08829635       9.26116873      16.39885555  F       56       0.10466824      -0.03785165       0.01061206
In       5.44264624       9.72955081      16.29163837  F       57       0.10792363      -0.15732288       0.02895014
In      14.56745775       0.00000023      16.52452729  F       58      -0.04257183      -0.05453069      -0.11321055
In       7.28372884       0.00000046      16.52452727  F       59       0.10101407       0.38336465       0.08519760
In       3.64186448       6.30789445      16.52452688  F       60       0.38636267      -0.17762241       0.29956663
In      -3.64186467       6.30789479      16.52452729  F       61      -0.42033717      -0.15353802       0.08421680
In       9.06455585       2.82206686      16.65019864  F       62      -0.12630288       0.21607941       0.02945418
In       1.84108280       2.88623741      16.75741682  F       63      -0.04004473       0.11951019      -0.37914729
In       5.19543306       3.35462016      16.65019954  F       64       0.20228925       0.33014274       0.18403050
In      11.14736129       0.15130547      16.75741597  F       65       0.00888128      -0.16389348      -0.35742265
In       7.59119877       6.43910216      16.65019924  F       66      -0.22584289      -0.11648268       0.32207870
In       8.86274257       9.57824538      16.75741545  F       67      -0.12593915      -0.14988124      -0.07704414
O        9.17763668       4.93473784      17.06350958  F       68       0.29617578       0.17643073       0.05025887
O        6.96851909       2.20035367      17.06350993  F       69       0.17548370      -0.28408301       0.13462597
O        5.70503103       5.48069763      17.06350990  F       70      -0.29726774      -0.07903716       0.20342115
O       -2.01746347       4.98124236      17.10476289  F       71       0.07876003       0.09565860       0.28491327
O       -1.96111486      11.87234229      17.10476307  F       72       0.05806744      -0.09877601       0.30073303
O        3.97857827       8.37799246      17.10476382  F       73      -0.18334302       0.08435325       0.01643264
O        6.94850543       8.48097521      17.29260816  F       74      -0.03165972       0.61076081      -0.42186204
O       11.15421650       2.35771879      17.29260829  F       75       0.58255446      -0.05945584      -0.11927944
O        3.74846506       1.77709453      17.29260778  F       76      -0.33253086      -0.44209397      -0.04854748
O       -0.04640858       1.97058198      17.55952389  F       77      -0.05700549       0.00102672       0.04480146
O       -5.55395094      11.67068958      17.55952349  F       78       0.06209809       0.03185104       0.03398933
O        5.60035973      11.59030666      17.55952404  F       79      -0.00312106       0.05877062       0.08695832
O       -1.64099757       9.35703180      18.47119405  T       80      -0.00158490      -0.00246736      -0.00577605
O        1.67574809       9.34889629      18.49174561  T       81       0.00247966      -0.00104240      -0.00922000
O       -0.01701345       6.53893542      18.47029214  T       82      -0.00028037      -0.00602756      -0.00877780
O        3.40496651       6.06663603      18.71961686  T       83      -0.01249905       0.00442278       0.00415673
O       -3.69662835       6.54813257      18.77357054  T       84      -0.01240003      -0.00081478      -0.00136484
O        0.23743919      12.56076524      18.77329290  T       85      -0.00429998      -0.00127837      -0.00481810
O        9.22587082       9.12779462      18.98472252  T       86       0.00649716       0.00925821      -0.00279647
O        1.99340826       3.44864087      18.95230138  T       87      -0.00534394      -0.00741696      -0.00741524
O       10.54954264       0.02663087      18.93606226  T       88       0.00332761      -0.00211817      -0.00340198
O        9.01528589       2.86363925      18.99499345  T       89      -0.01296067      -0.00205134      -0.00754431
O        5.26391514       3.39786487      19.01785609  T       90      -0.02029558      -0.00520539      -0.01704967
O        7.63129466       6.35602655      18.99302355  T       91       0.02127865       0.00051816      -0.01732919
In      -1.77226633       5.63867667      19.45530931  T       92       0.00708427       0.00148888      -0.00108641
In      -1.53150535      11.34462405      19.44031976  T       93      -0.00193198       0.00384092       0.00553475
In       7.01800796       2.04034529      19.27827836  T       94      -0.00993758       0.00436619      -0.00906090
In       3.40691754       8.25509426      19.48081857  T       95       0.00322453      -0.00564784       0.00929628
In       5.52738890       5.60580505      19.31905600  T       96       0.00147694       0.00949600       0.01119019
In       9.29005807       5.07117705      19.28679746  T       97      -0.00960895       0.00707965      -0.00071899
In       0.02707269       8.41900565      19.77970226  T       98      -0.00378823      -0.00455986      -0.00289973
In       3.56037493       2.07529646      19.41385441  T       99       0.00648196       0.00894040       0.00319543
In      11.00822028       2.05435917      19.40984969  T      100       0.00336156       0.00458317      -0.00181112
In       7.17243187       8.50504482      19.43183320  T      101      -0.00994077       0.00055219       0.00350359
In      -5.44229827      11.34369956      19.69002215  T      102      -0.00234067      -0.01439202       0.00137407
In      -3.33461401       8.58933447      19.61229966  T      103      -0.00597242       0.00367163       0.00472027
In       0.17069482       2.25210389      19.68677758  T      104      -0.00099999      -0.01021325       0.00077373
In       1.51774993       5.47589675      19.60023013  T      105      -0.00980963      -0.00285895       0.00086738
In       1.81669333      11.18666140      19.62416601  T      106      -0.00243383      -0.00676863       0.00115129
In       5.26205505      11.64256263      19.69975491  T      107      -0.00183674      -0.00627229       0.00212435
O        1.86443583       0.89718549      20.12747079  T      108      -0.00367863       0.00223761      -0.00710145
O        7.12618893      10.61644942      20.14030910  T      109       0.00048304       0.01175481      -0.01008523
O       12.86563027       1.18090630      20.12343832  T      110      -0.00733646       0.00532514      -0.00270450
O        5.36520804       7.64617312      20.02427247  T      111      -0.00718930       0.00628969       0.00558853
O       11.24279972       4.11516697      20.21126130  T      112       0.00567573      -0.00244516      -0.00028509
O        5.21914112       0.82767994      20.21803654  T      113      -0.00760064      -0.00406114      -0.01135564
O       -0.26005496       4.29106080      20.23526311  T      114      -0.00798041      -0.00293660      -0.00225830
O       -3.45374445      10.71547261      20.22716397  T      115      -0.00596265      -0.00248322      -0.00075465
O        3.70517867      10.30595017      20.28157569  T      116      -0.00739276      -0.00131357       0.00199020
O       -1.79084061       7.48501781      20.62493251  T      117      -0.00499773       0.00265082      -0.00798911
O        0.06390624      10.44752613      20.62292229  T      118       0.00377771       0.00185484      -0.00052029
O        1.72876138       7.34957601      20.61828990  T      119      -0.01042380      -0.00950067       0.00298655
P        7.33361151       4.11145533      21.76030695  T        0      -0.00092153       0.00080839      -0.00515330
O        6.12406479       4.94688668      21.31453132  T        0      -0.00141853       0.01120013       0.00198985
O        7.21224615       2.61471491      21.35005420  T        0       0.00020059       0.00544482       0.02161911
O        8.69769979       4.73285606      21.35527980  T        0      -0.00210571      -0.00397351       0.00220976
C        7.31814713       4.11324289      23.57323402  T        0       0.00470572       0.00449665      -0.00759953
H        7.36388897       5.14998270      23.92434684  T        0       0.00580934       0.00507307       0.00176969
H        6.39183724       3.64245563      23.92041420  T        0      -0.01106264      -0.01179151       0.00149844
H        8.18426045       3.55203862      23.94031373  T        0       0.00680546      -0.00403988      -0.00717867
H        5.37224236       0.95025741      21.17781643  T        0      -0.00465342       0.00259283      -0.00196618
H       11.04905330       4.16930294      21.17050297  T        0      -0.00274609      -0.00206992      -0.00307804
