130
Lattice="14.567458257780915 0.0 0.0 -7.283729128890462 12.615788919807672 0.0 0.0 0.0 33.04905420593702" Properties=species:S:1:pos:R:3:move_mask:L:1:spacegroup_kinds:I:1:forces:R:3 spacegroup="P 1" unit_cell=conventional occupancy="_JSON {\"0\": {\"O\": 1.0}, \"1\": {\"O\": 1.0}, \"2\": {\"O\": 1.0}, \"3\": {\"O\": 1.0}, \"4\": {\"O\": 1.0}, \"5\": {\"O\": 1.0}, \"6\": {\"O\": 1.0}, \"7\": {\"O\": 1.0}, \"8\": {\"O\": 1.0}, \"9\": {\"O\": 1.0}, \"10\": {\"O\": 1.0}, \"11\": {\"O\": 1.0}, \"12\": {\"In\": 1.0}, \"13\": {\"In\": 1.0}, \"14\": {\"In\": 1.0}, \"15\": {\"In\": 1.0}, \"16\": {\"In\": 1.0}, \"17\": {\"In\": 1.0}, \"18\": {\"In\": 1.0}, \"19\": {\"In\": 1.0}, \"20\": {\"In\": 1.0}, \"21\": {\"In\": 1.0}, \"22\": {\"In\": 1.0}, \"23\": {\"In\": 1.0}, \"24\": {\"In\": 1.0}, \"25\": {\"In\": 1.0}, \"26\": {\"In\": 1.0}, \"27\": {\"In\": 1.0}, \"28\": {\"O\": 1.0}, \"29\": {\"O\": 1.0}, \"30\": {\"O\": 1.0}, \"31\": {\"O\": 1.0}, \"32\": {\"O\": 1.0}, \"33\": {\"O\": 1.0}, \"34\": {\"O\": 1.0}, \"35\": {\"O\": 1.0}, \"36\": {\"O\": 1.0}, \"37\": {\"O\": 1.0}, \"38\": {\"O\": 1.0}, \"39\": {\"O\": 1.0}, \"40\": {\"O\": 1.0}, \"41\": {\"O\": 1.0}, \"42\": {\"O\": 1.0}, \"43\": {\"O\": 1.0}, \"44\": {\"O\": 1.0}, \"45\": {\"O\": 1.0}, \"46\": {\"O\": 1.0}, \"47\": {\"O\": 1.0}, \"48\": {\"O\": 1.0}, \"49\": {\"O\": 1.0}, \"50\": {\"O\": 1.0}, \"51\": {\"O\": 1.0}, \"52\": {\"In\": 1.0}, \"53\": {\"In\": 1.0}, \"54\": {\"In\": 1.0}, \"55\": {\"In\": 1.0}, \"56\": {\"In\": 1.0}, \"57\": {\"In\": 1.0}, \"58\": {\"In\": 1.0}, \"59\": {\"In\": 1.0}, \"60\": {\"In\": 1.0}, \"61\": {\"In\": 1.0}, \"62\": {\"In\": 1.0}, \"63\": {\"In\": 1.0}, \"64\": {\"In\": 1.0}, \"65\": {\"In\": 1.0}, \"66\": {\"In\": 1.0}, \"67\": {\"In\": 1.0}, \"68\": {\"O\": 1.0}, \"69\": {\"O\": 1.0}, \"70\": {\"O\": 1.0}, \"71\": {\"O\": 1.0}, \"72\": {\"O\": 1.0}, \"73\": {\"O\": 1.0}, \"74\": {\"O\": 1.0}, \"75\": {\"O\": 1.0}, \"76\": {\"O\": 1.0}, \"77\": {\"O\": 1.0}, \"78\": {\"O\": 1.0}, \"79\": {\"O\": 1.0}, \"80\": {\"O\": 1.0}, \"81\": {\"O\": 1.0}, \"82\": {\"O\": 1.0}, \"83\": {\"O\": 1.0}, \"84\": {\"O\": 1.0}, \"85\": {\"O\": 1.0}, \"86\": {\"O\": 1.0}, \"87\": {\"O\": 1.0}, \"88\": {\"O\": 1.0}, \"89\": {\"O\": 1.0}, \"90\": {\"O\": 1.0}, \"91\": {\"O\": 1.0}, \"92\": {\"In\": 1.0}, \"93\": {\"In\": 1.0}, \"94\": {\"In\": 1.0}, \"95\": {\"In\": 1.0}, \"96\": {\"In\": 1.0}, \"97\": {\"In\": 1.0}, \"98\": {\"In\": 1.0}, \"99\": {\"In\": 1.0}, \"100\": {\"In\": 1.0}, \"101\": {\"In\": 1.0}, \"102\": {\"In\": 1.0}, \"103\": {\"In\": 1.0}, \"104\": {\"In\": 1.0}, \"105\": {\"In\": 1.0}, \"106\": {\"In\": 1.0}, \"107\": {\"In\": 1.0}, \"108\": {\"O\": 1.0}, \"109\": {\"O\": 1.0}, \"110\": {\"O\": 1.0}, \"111\": {\"O\": 1.0}, \"112\": {\"O\": 1.0}, \"113\": {\"O\": 1.0}, \"114\": {\"O\": 1.0}, \"115\": {\"O\": 1.0}, \"116\": {\"O\": 1.0}, \"117\": {\"O\": 1.0}, \"118\": {\"O\": 1.0}, \"119\": {\"O\": 1.0}}" energy=-716.0472412109375 free_energy=-716.0472412109375 stress="0.005830020178109407 -5.711302219424397e-05 8.68873485160293e-06 -5.711302219424397e-05 0.0059224399738013744 0.00015583499043714255 8.68873485160293e-06 0.00015583499043714255 6.563233182532713e-05" pbc="T T T"
O        5.56112551       5.29730098      12.44442493  F        0       0.00097245      -0.00084800       0.01243651
O        7.19929797       2.16742567      12.44442488  F        1       0.00275549      -0.00803310       0.02003121
O        9.09076378       5.15106294      12.44442506  F        2       0.00471577      -0.00322082       0.01841116
O        3.56236441       2.32744963      12.81467041  F        3       0.01241419      -0.00453439       0.00034940
O       10.77064547       1.92137361      12.81467059  F        4      -0.01107469       0.00524890       0.00666666
O        7.51817736       8.36696557      12.81467060  F        5       0.00053333      -0.01135498      -0.00100440
O       -3.86713652       8.43746206      12.95843886  F        6       0.02589902      -0.01208195       0.03026310
O        1.91024068       5.04801920      12.95843918  F        7      -0.00226605       0.02522996       0.01319981
O        1.95689587      11.74609578      12.95843921  F        8      -0.02872638      -0.00225806       0.02644998
O       -5.62751792      11.43742505      12.90107995  F        9       0.03250563       0.01059824       0.00136954
O        0.19238766       2.02350350      12.90107932  F       10      -0.02781430       0.01424109       0.00289196
O        5.43512990      11.77064967      12.90107909  F       11      -0.00561370      -0.01663047       0.00424898
In       2.02827288       0.93415595      13.34696164  F       12      -0.01881655       0.01209383       0.05882312
In       5.45297263       1.43044201      13.46548669  F       13      -0.01045294       0.01351239      -0.05404493
In       5.79604177       7.17815473      13.46548635  F       14      -0.01328735       0.01004859      -0.03465788
In       7.07859496      10.39217548      13.34696140  F       15       0.00587594       0.00210217       0.06049263
In      10.60217256       4.00719198      13.46548647  F       16       0.01052324       0.00589706      -0.05900313
In      12.74431985       1.28945811      13.34696112  F       17       0.00775471      -0.00960609       0.03198141
In      -3.76992867      10.45841758      13.58493911  F       18      -0.02750483       0.00128429      -0.01240730
In       0.11143913       4.12172609      13.58493797  F       19       0.01705323      -0.01163898       0.01396540
In       7.28372934       4.20526284      13.28077194  F       20      -0.00858110       0.00838119      -0.03553244
In       3.65848992      10.65143468      13.58493907  F       21       0.01438482      -0.00063365       0.00430791
In      -2.12514371       7.57248039      13.82744761  F       22      -0.02742462       0.00470430      -0.06849441
In       1.78834112       6.98912009      13.82744861  F       23       0.01144194      -0.03527899      -0.01515396
In       3.89762555       4.37439996      13.55369945  F       24      -0.00189110      -0.00209693      -0.01883339
In       0.33680320      10.66997741      13.82744770  F       25       0.03788085       0.00901191      -0.07402922
In       8.83030441       1.18824328      13.55369950  F       26       0.00836068       0.01443917      -0.07537410
In       9.12325787       7.05314622      13.55369981  F       27      -0.02147517      -0.00184684      -0.05768581
O        1.94314284       9.09920259      13.79983277  F       28      -0.01887295       0.02510482       0.01850057
O       -0.37515974       6.38337672      13.79983300  F       29      -0.00397509       0.00814700       0.02072179
O       -1.56798334       9.74899853      13.79983313  F       30      -0.00697052      -0.00518760       0.03890127
O       -1.90665604       3.49451490      14.07374983  F       31      -0.02801855       0.01133138       0.02976099
O       -3.30406258      12.51974383      14.07375025  F       32       0.04145855      -0.00572491       0.04419335
O        5.21071859       9.21731872      14.07374980  F       33      -0.01320148      -0.01942864      -0.00409773
O        6.95268262       0.11029125      14.35625235  F       34      -0.00386462      -0.00326523       0.07337247
O        3.90290295       6.53944318      14.35625252  F       35       0.00935644       0.00129682       0.01391201
O       10.99560128       5.96605484      14.35625280  F       36       0.00540140       0.00586548       0.05158098
O        5.60077915       3.29585311      14.56420047  F       37       0.00975180       0.00988027       0.04253095
O        8.91277589       3.20249084      14.56420075  F       38      -0.00809887      -0.02681477       0.07153749
O        7.33763173       6.11744518      14.56420087  F       39       0.03000328      -0.01064296       0.05015045
O        1.68336921       1.02548187      15.48953070  F       40       0.07460432       0.00163360      -0.06013784
O       12.83768043       0.94510034      15.48953027  F       41      -0.08678503       0.07966583      -0.03139490
O        7.33013789      10.64520717      15.48953039  F       42      -0.02329554      -0.06251401      -0.06909057
O       -3.87048772      10.25806959      15.75644575  F       43       0.11571238      -0.02018613       0.01020135
O        0.33522381       4.13481358      15.75644581  F       44      -0.02051392       0.08931356      -0.00372176
O        3.53526358      10.83869431      15.75644572  F       45      -0.09929425      -0.00338671       0.00677473
O        9.24484356       0.74344663      15.94429150  F       46       0.05659343       0.00139961       0.12868015
O        3.30515102       4.23779662      15.94429168  F       47       0.02023050      -0.00270751       0.01414570
O        9.30119327       7.63454631      15.94429132  F       48       0.03280070       0.06539252       0.13803962
O       -1.89390768       7.68105065      15.98554452  F       49       0.00867642       0.10075030       0.13762957
O        1.57869822       7.13509120      15.98554413  F       50      -0.01701084       0.00683682       0.01335839
O        0.31520971      10.41543579      15.98554439  F       51      -0.15398292       0.01326245       0.10748091
In      -1.57901381       3.03754313      16.29163881  F       52       0.23744874      -0.08105393       0.02861830
In      -3.86363272      12.46448245      16.29163869  F       53      -0.31597245       0.05053338       0.05250193
In      -0.30746998       6.17668715      16.39885574  F       54       0.07014975       0.00468951      -0.07501623
In      -1.78082649       9.79372205      16.39885556  F       55      -0.11648550      -0.10479745      -0.20595062
In       2.08829635       9.26116873      16.39885555  F       56       0.04974622      -0.04260308      -0.04815900
In       5.44264624       9.72955081      16.29163837  F       57       0.07310254       0.14305972       0.10366774
In      14.56745775       0.00000023      16.52452729  F       58       0.04260802      -0.01516045       0.22799632
In       7.28372884       0.00000046      16.52452727  F       59       0.12034821       0.03378981      -0.34368747
In       3.64186448       6.30789445      16.52452688  F       60      -0.04842107       0.02007379      -0.15606664
In      -3.64186467       6.30789479      16.52452729  F       61       0.02292001      -0.01558553      -0.28787467
In       9.06455585       2.82206686      16.65019864  F       62      -0.10059203       0.08658412      -0.35316461
In       1.84108280       2.88623741      16.75741682  F       63      -0.13102251      -0.10496069       0.08821596
In       5.19543306       3.35462016      16.65019954  F       64      -0.06818213       0.01794352      -0.27090704
In      11.14736129       0.15130547      16.75741597  F       65       0.28292835      -0.23067038       0.02028051
In       7.59119877       6.43910216      16.65019924  F       66      -0.06551328       0.01067904      -0.21149001
In       8.86274257       9.57824538      16.75741545  F       67      -0.06031065       0.30765557       0.09777778
O        9.17763668       4.93473784      17.06350958  F       68       0.00220588      -0.00784853       0.09009719
O        6.96851909       2.20035367      17.06350993  F       69       0.00598603      -0.03532521       0.08279427
O        5.70503103       5.48069763      17.06350990  F       70      -0.01379266      -0.08902843       0.13261653
O       -2.01746347       4.98124236      17.10476289  F       71      -0.01820563      -0.01952574       0.08006473
O       -1.96111486      11.87234229      17.10476307  F       72       0.16240460       0.06183693       0.18865719
O        3.97857827       8.37799246      17.10476382  F       73      -0.03473595       0.02098206       0.06002800
O        6.94850543       8.48097521      17.29260816  F       74       0.29034853      -0.29192114      -0.15137446
O       11.15421650       2.35771879      17.29260829  F       75      -0.26173508      -0.01791573      -0.01501873
O        3.74846506       1.77709453      17.29260778  F       76       0.31490165       0.14867859      -0.35124892
O       -0.04640858       1.97058198      17.55952389  F       77       0.08120492       0.18548149       0.39201859
O       -5.55395094      11.67068958      17.55952349  F       78       0.08752423      -0.49375492       0.04761693
O        5.60035973      11.59030666      17.55952404  F       79      -0.45413935       0.29595059       0.20709090
O       -1.75284528       9.48311762      18.51888506  T       80       0.00121653       0.00491575      -0.00664145
O        1.63267216       9.30960930      18.47343321  T       81       0.00246263       0.00241745       0.00449467
O       -0.08779276       6.56000585      18.47996487  T       82       0.00242170      -0.00252974       0.00417906
O        3.36943913       6.09018599      18.68364323  T       83      -0.00201484       0.00442177       0.00075480
O       -3.70209655       6.63506145      18.67647559  T       84       0.00036573      -0.00231481       0.00253987
O        0.38604626      12.51559716      18.67773578  T       85      -0.00955567       0.00103043      -0.01080598
O        9.28597246       9.17083297      19.07097872  T       86      -0.00685892      -0.00146654      -0.00868616
O        2.12050998       3.47145981      18.98066014  T       87      -0.00308156      -0.00805479       0.00667515
O       10.62013419       0.08154597      19.05158024  T       88      -0.01197085       0.00390640       0.00206870
O        8.81568832       2.90168434      19.23902441  T       89       0.00157133      -0.00254065       0.00215375
O        5.36247052       3.50348786      19.26981390  T       90       0.00576808       0.01084584      -0.00001612
O        7.65259758       6.23657618      19.23624126  T       91       0.00567386      -0.00059250      -0.00405037
In      -1.83463103       5.53892997      19.47556403  T       92       0.00545593      -0.01252187       0.00836648
In      -1.46341094      11.46015122      19.43193069  T       93       0.00424147      -0.00605471      -0.00811358
In       6.95077436       1.94331312      19.21884225  T       94      -0.00978715      -0.01423290       0.01177178
In       3.37854474       8.21689625      19.48940860  T       95      -0.00498276       0.00408408      -0.00155556
In       5.46309098       5.61534032      19.22349089  T       96       0.00085714      -0.00266640       0.00194478
In       9.40370390       5.08557839      19.22354106  T       97      -0.00098021      -0.00984610       0.00432958
In      -0.00107909       8.40691585      19.78802130  T       98      -0.00556396      -0.01114777       0.00353724
In       3.68836941       2.00185842      19.42700175  T       99      -0.02315517      -0.00845131      -0.00765325
In      10.89210999       2.20989978      19.41870746  T      100      -0.01287215      -0.00047282       0.00115927
In       7.18003031       8.40831606      19.44114678  T      101       0.01967645      -0.00239871      -0.00861178
In      -5.61336175      11.34083932      19.78952323  T      102      -0.00390942      -0.00515920      -0.00055805
In      -3.32671457       8.52898334      19.61267921  T      103      -0.01011696      -0.00137477      -0.00898157
In       0.35936120       2.29192920      19.78639580  T      104       0.00190470       0.00785779       0.00600579
In       1.47761303       5.47986881      19.58025062  T      105      -0.00649066      -0.00310582      -0.01191784
In       1.83261562      11.15359662      19.59506805  T      106       0.01180941      -0.00552034      -0.00429283
In       5.20381138      11.57137430      19.80231090  T      107      -0.00188566      -0.00100473       0.00099315
O        1.98645691       0.83515252      19.75286377  T      108       0.00880790       0.01798399      -0.01255241
O        6.99202002      10.45043904      19.76288474  T      109      -0.00897639       0.00107148       0.00716440
O       12.81862187       1.47021294      20.01228134  T      110       0.00662705       0.00326726      -0.00916559
O        5.35968966       7.52012782      20.11747736  T      111      -0.00542900      -0.00671729       0.00457364
O       11.10487553       4.20856902      20.11103092  T      112       0.00609060       0.00194016      -0.00566083
O        5.36654238       0.83681001      20.09516864  T      113      -0.00490892       0.00390390      -0.00000143
O       -0.22090416       4.30778138      20.20434042  T      114       0.00770593      -0.01453348      -0.00461006
O       -3.45857815      10.73784703      20.45647485  T      115      -0.00149749       0.00004429      -0.01268268
O        3.64688456      10.21430239      20.25354118  T      116       0.00029205       0.00758874      -0.00512785
O       -1.81484440       7.46106299      20.62861637  T      117      -0.00649986      -0.00257242       0.00706697
O        0.05908419      10.45381629      20.60414630  T      118      -0.00162572      -0.00648084       0.00507265
O        1.71306274       7.33448449      20.61973963  T      119      -0.00325724       0.00013624      -0.00785935
P        0.01381785       0.02887227      22.28501414  T        0      -0.00249106      -0.00567028      -0.00251138
O        1.16737189      -0.92818804      21.91660843  T        0      -0.00877225      -0.00790703      -0.00039210
O        0.24190721       1.50574028      21.88079180  T        0      -0.00318687      -0.00839698      -0.00628868
O       -1.39618549      -0.44778156      21.82830660  T        0       0.00756574       0.01157975      -0.00918020
C       -0.06176594       0.03831600      24.10512095  T        0       0.00091514      -0.00676795       0.01433167
H       -0.34069779      -0.96061256      24.45498464  T        0      -0.00339042      -0.00998163      -0.00605765
H        0.92130610       0.31693021      24.49781258  T        0       0.01360488      -0.00129715      -0.00595679
H       -0.81223787       0.77166889      24.42017091  T        0       0.00221147      -0.01206571       0.00959557
H       -1.70654401       1.37111396      20.99550633  T        0      -0.00032156      -0.01120093      -0.00213331
H        3.86876122      -1.70756233      21.41819110  T        0      -0.01723109      -0.00648528      -0.00949526
