130
Lattice="14.567458257780915 0.0 0.0 -7.283729128890462 12.615788919807672 0.0 0.0 0.0 33.04905420593702" Properties=species:S:1:pos:R:3:move_mask:L:1:spacegroup_kinds:I:1:forces:R:3 spacegroup="P 1" unit_cell=conventional occupancy="_JSON {\"0\": {\"O\": 1.0}, \"1\": {\"O\": 1.0}, \"2\": {\"O\": 1.0}, \"3\": {\"O\": 1.0}, \"4\": {\"O\": 1.0}, \"5\": {\"O\": 1.0}, \"6\": {\"O\": 1.0}, \"7\": {\"O\": 1.0}, \"8\": {\"O\": 1.0}, \"9\": {\"O\": 1.0}, \"10\": {\"O\": 1.0}, \"11\": {\"O\": 1.0}, \"12\": {\"In\": 1.0}, \"13\": {\"In\": 1.0}, \"14\": {\"In\": 1.0}, \"15\": {\"In\": 1.0}, \"16\": {\"In\": 1.0}, \"17\": {\"In\": 1.0}, \"18\": {\"In\": 1.0}, \"19\": {\"In\": 1.0}, \"20\": {\"In\": 1.0}, \"21\": {\"In\": 1.0}, \"22\": {\"In\": 1.0}, \"23\": {\"In\": 1.0}, \"24\": {\"In\": 1.0}, \"25\": {\"In\": 1.0}, \"26\": {\"In\": 1.0}, \"27\": {\"In\": 1.0}, \"28\": {\"O\": 1.0}, \"29\": {\"O\": 1.0}, \"30\": {\"O\": 1.0}, \"31\": {\"O\": 1.0}, \"32\": {\"O\": 1.0}, \"33\": {\"O\": 1.0}, \"34\": {\"O\": 1.0}, \"35\": {\"O\": 1.0}, \"36\": {\"O\": 1.0}, \"37\": {\"O\": 1.0}, \"38\": {\"O\": 1.0}, \"39\": {\"O\": 1.0}, \"40\": {\"O\": 1.0}, \"41\": {\"O\": 1.0}, \"42\": {\"O\": 1.0}, \"43\": {\"O\": 1.0}, \"44\": {\"O\": 1.0}, \"45\": {\"O\": 1.0}, \"46\": {\"O\": 1.0}, \"47\": {\"O\": 1.0}, \"48\": {\"O\": 1.0}, \"49\": {\"O\": 1.0}, \"50\": {\"O\": 1.0}, \"51\": {\"O\": 1.0}, \"52\": {\"In\": 1.0}, \"53\": {\"In\": 1.0}, \"54\": {\"In\": 1.0}, \"55\": {\"In\": 1.0}, \"56\": {\"In\": 1.0}, \"57\": {\"In\": 1.0}, \"58\": {\"In\": 1.0}, \"59\": {\"In\": 1.0}, \"60\": {\"In\": 1.0}, \"61\": {\"In\": 1.0}, \"62\": {\"In\": 1.0}, \"63\": {\"In\": 1.0}, \"64\": {\"In\": 1.0}, \"65\": {\"In\": 1.0}, \"66\": {\"In\": 1.0}, \"67\": {\"In\": 1.0}, \"68\": {\"O\": 1.0}, \"69\": {\"O\": 1.0}, \"70\": {\"O\": 1.0}, \"71\": {\"O\": 1.0}, \"72\": {\"O\": 1.0}, \"73\": {\"O\": 1.0}, \"74\": {\"O\": 1.0}, \"75\": {\"O\": 1.0}, \"76\": {\"O\": 1.0}, \"77\": {\"O\": 1.0}, \"78\": {\"O\": 1.0}, \"79\": {\"O\": 1.0}, \"80\": {\"O\": 1.0}, \"81\": {\"O\": 1.0}, \"82\": {\"O\": 1.0}, \"83\": {\"O\": 1.0}, \"84\": {\"O\": 1.0}, \"85\": {\"O\": 1.0}, \"86\": {\"O\": 1.0}, \"87\": {\"O\": 1.0}, \"88\": {\"O\": 1.0}, \"89\": {\"O\": 1.0}, \"90\": {\"O\": 1.0}, \"91\": {\"O\": 1.0}, \"92\": {\"In\": 1.0}, \"93\": {\"In\": 1.0}, \"94\": {\"In\": 1.0}, \"95\": {\"In\": 1.0}, \"96\": {\"In\": 1.0}, \"97\": {\"In\": 1.0}, \"98\": {\"In\": 1.0}, \"99\": {\"In\": 1.0}, \"100\": {\"In\": 1.0}, \"101\": {\"In\": 1.0}, \"102\": {\"In\": 1.0}, \"103\": {\"In\": 1.0}, \"104\": {\"In\": 1.0}, \"105\": {\"In\": 1.0}, \"106\": {\"In\": 1.0}, \"107\": {\"In\": 1.0}, \"108\": {\"O\": 1.0}, \"109\": {\"O\": 1.0}, \"110\": {\"O\": 1.0}, \"111\": {\"O\": 1.0}, \"112\": {\"O\": 1.0}, \"113\": {\"O\": 1.0}, \"114\": {\"O\": 1.0}, \"115\": {\"O\": 1.0}, \"116\": {\"O\": 1.0}, \"117\": {\"O\": 1.0}, \"118\": {\"O\": 1.0}, \"119\": {\"O\": 1.0}}" energy=-717.8177490234375 free_energy=-717.8177490234375 stress="0.006792362313717604 -0.00046941512846387923 3.507602013996802e-05 -0.00046941512846387923 0.006895466707646847 -3.323491910123266e-05 3.507602013996802e-05 -3.323491910123266e-05 2.104978648276301e-06" pbc="T T T"
O        5.56112551       5.29730098      12.44442493  F        0      -0.01891980       0.02840368       0.00132477
O        7.19929797       2.16742567      12.44442488  F        1      -0.01383460      -0.01885015      -0.00596225
O        9.09076378       5.15106294      12.44442506  F        2       0.00264218       0.02682432      -0.00413537
O        3.56236441       2.32744963      12.81467041  F        3      -0.01645592      -0.02266173      -0.01089340
O       10.77064547       1.92137361      12.81467059  F        4       0.02715753      -0.00460669      -0.03071868
O        7.51817736       8.36696557      12.81467060  F        5      -0.01315174       0.01387820      -0.00173187
O       -3.86713652       8.43746206      12.95843886  F        6       0.02720416       0.01532286       0.02174360
O        1.91024068       5.04801920      12.95843918  F        7       0.00191066       0.03463555       0.02925885
O        1.95689587      11.74609578      12.95843921  F        8      -0.01393870      -0.05498199       0.01945931
O       -5.62751792      11.43742505      12.90107995  F        9       0.02059509       0.00582643       0.01684785
O        0.19238766       2.02350350      12.90107932  F       10      -0.00044484       0.00156967      -0.00354725
O        5.43512990      11.77064967      12.90107909  F       11       0.00737291      -0.04877236       0.00708193
In       2.02827288       0.93415595      13.34696164  F       12      -0.00611771       0.02337254       0.00718868
In       5.45297263       1.43044201      13.46548669  F       13       0.03943145       0.05361523      -0.00014086
In       5.79604177       7.17815473      13.46548635  F       14       0.03914963      -0.03406607      -0.05020723
In       7.07859496      10.39217548      13.34696140  F       15       0.01088476       0.00202449      -0.01579167
In      10.60217256       4.00719198      13.46548647  F       16      -0.02913212      -0.02660043       0.02071397
In      12.74431985       1.28945811      13.34696112  F       17      -0.02726827       0.02006046       0.05640019
In      -3.76992867      10.45841758      13.58493911  F       18      -0.01844133       0.00089647      -0.06311147
In       0.11143913       4.12172609      13.58493797  F       19      -0.02881753      -0.02629854       0.00273739
In       7.28372934       4.20526284      13.28077194  F       20       0.02468193      -0.05035826       0.04041952
In       3.65848992      10.65143468      13.58493907  F       21       0.00251850       0.04607838      -0.03677887
In      -2.12514371       7.57248039      13.82744761  F       22      -0.05372229      -0.02709216      -0.04467602
In       1.78834112       6.98912009      13.82744861  F       23      -0.00181730      -0.05501388      -0.12954897
In       3.89762555       4.37439996      13.55369945  F       24       0.04719380      -0.05605169      -0.00428341
In       0.33680320      10.66997741      13.82744770  F       25       0.03059266       0.08142595      -0.09158003
In       8.83030441       1.18824328      13.55369950  F       26       0.01771633       0.05730845       0.06719554
In       9.12325787       7.05314622      13.55369981  F       27      -0.00949703      -0.03378130       0.00351988
O        1.94314284       9.09920259      13.79983277  F       28      -0.00403881       0.00008214       0.07707870
O       -0.37515974       6.38337672      13.79983300  F       29       0.03823411       0.02369690       0.03541446
O       -1.56798334       9.74899853      13.79983313  F       30       0.00000608       0.00493087       0.06590915
O       -1.90665604       3.49451490      14.07374983  F       31       0.03364047       0.02384216      -0.04461932
O       -3.30406258      12.51974383      14.07375025  F       32       0.01556227      -0.03184807       0.05376729
O        5.21071859       9.21731872      14.07374980  F       33      -0.01608706      -0.02202776       0.07962617
O        6.95268262       0.11029125      14.35625235  F       34      -0.04657167      -0.10085602       0.02258268
O        3.90290295       6.53944318      14.35625252  F       35      -0.01797378       0.05049235       0.08140020
O       10.99560128       5.96605484      14.35625280  F       36       0.02769527       0.04016843      -0.00718734
O        5.60077915       3.29585311      14.56420047  F       37      -0.06310987       0.05185239      -0.08394420
O        8.91277589       3.20249084      14.56420075  F       38      -0.01427871       0.01418239      -0.12633681
O        7.33763173       6.11744518      14.56420087  F       39      -0.01688406       0.04217410      -0.00376028
O        1.68336921       1.02548187      15.48953070  F       40       0.01564136      -0.03535428      -0.01037918
O       12.83768043       0.94510034      15.48953027  F       41       0.07986937      -0.10947280      -0.05806731
O        7.33013789      10.64520717      15.48953039  F       42      -0.00552551      -0.05106433       0.03248854
O       -3.87048772      10.25806959      15.75644575  F       43       0.10044401       0.00072360       0.07957407
O        0.33522381       4.13481358      15.75644581  F       44       0.00413725       0.08077645       0.02228692
O        3.53526358      10.83869431      15.75644572  F       45      -0.01316214      -0.18751404       0.03968656
O        9.24484356       0.74344663      15.94429150  F       46      -0.03821240      -0.24005023      -0.05869247
O        3.30515102       4.23779662      15.94429168  F       47      -0.00137883       0.05588829       0.02489772
O        9.30119327       7.63454631      15.94429132  F       48      -0.05806635       0.14358130      -0.02570966
O       -1.89390768       7.68105065      15.98554452  F       49       0.08642194       0.09284943       0.07713676
O        1.57869822       7.13509120      15.98554413  F       50       0.05467635       0.24057521       0.21483433
O        0.31520971      10.41543579      15.98554439  F       51       0.05830547      -0.17492780       0.15044054
In      -1.57901381       3.03754313      16.29163881  F       52      -0.27839002      -0.15480621       0.16227731
In      -3.86363272      12.46448245      16.29163869  F       53      -0.13585015       0.16767359      -0.09421366
In      -0.30746998       6.17668715      16.39885574  F       54      -0.12772793      -0.16151944      -0.26157936
In      -1.78082649       9.79372205      16.39885556  F       55      -0.00077966      -0.15903217      -0.31603551
In       2.08829635       9.26116873      16.39885555  F       56      -0.06705220       0.30371359       0.04396975
In       5.44264624       9.72955081      16.29163837  F       57       0.13974510       0.14689362      -0.17272286
In      14.56745775       0.00000023      16.52452729  F       58       0.00109321       0.12135367      -0.11870605
In       7.28372884       0.00000046      16.52452727  F       59       0.20449702       0.51526177       0.12145583
In       3.64186448       6.30789445      16.52452688  F       60       0.08638661      -0.32453829      -0.25388041
In      -3.64186467       6.30789479      16.52452729  F       61      -0.15724513      -0.10956685      -0.05993790
In       9.06455585       2.82206686      16.65019864  F       62      -0.05420664      -0.03722425       0.46784693
In       1.84108280       2.88623741      16.75741682  F       63      -0.02620533      -0.06024908      -0.13398673
In       5.19543306       3.35462016      16.65019954  F       64       0.34404588      -0.30133280       0.08440368
In      11.14736129       0.15130547      16.75741597  F       65      -0.09590355       0.36289835      -0.03547964
In       7.59119877       6.43910216      16.65019924  F       66       0.16937569      -0.18975705      -0.12347841
In       8.86274257       9.57824538      16.75741545  F       67       0.00935931      -0.02430144      -0.05838006
O        9.17763668       4.93473784      17.06350958  F       68      -0.00668328       0.66088641      -0.36651301
O        6.96851909       2.20035367      17.06350993  F       69      -0.32684183      -0.32728899       0.36749995
O        5.70503103       5.48069763      17.06350990  F       70      -0.06615064       0.07479142       0.11090138
O       -2.01746347       4.98124236      17.10476289  F       71       0.15009111       0.16819319       0.07687952
O       -1.96111486      11.87234229      17.10476307  F       72      -0.19855501      -0.17861322      -0.09420504
O        3.97857827       8.37799246      17.10476382  F       73      -0.26325244       0.02337937       0.29600239
O        6.94850543       8.48097521      17.29260816  F       74      -0.09890467       0.01872835       0.05194133
O       11.15421650       2.35771879      17.29260829  F       75       0.25417835      -0.23993275       0.28599149
O        3.74846506       1.77709453      17.29260778  F       76      -0.12981051       0.02617070      -0.14611281
O       -0.04640858       1.97058198      17.55952389  F       77       0.14401264       0.02858748      -0.10599384
O       -5.55395094      11.67068958      17.55952349  F       78       0.03112248      -0.03985817       0.01328695
O        5.60035973      11.59030666      17.55952404  F       79       0.24362232      -0.21660125      -0.16864595
O       -1.57148196       9.42494528      18.48922481  T       80       0.00268862       0.00170937      -0.00299826
O        1.76499472       9.45057874      18.58961784  T       81      -0.00186930      -0.00405756      -0.00789589
O       -0.02377188       6.49316739      18.47260998  T       82       0.00139859       0.00524222       0.00858396
O        3.37169905       6.05104137      18.68359909  T       83      -0.00401974      -0.00427592      -0.00325760
O       -3.71128252       6.69240490      18.66980848  T       84       0.00674486       0.00105226      -0.00366101
O        0.27476550      12.41753057      18.70432118  T       85       0.00424707      -0.00191736      -0.00187415
O        9.18162107       9.13589677      18.98519634  T       86      -0.00161553      -0.00529253      -0.00368907
O        2.06750997       3.40832863      18.96965869  T       87       0.00264022      -0.00526938       0.00353216
O       10.67722551      -0.02759693      18.93366779  T       88       0.00045756       0.00409904      -0.00234356
O        8.88570863       2.90258158      18.98937570  T       89       0.00657988       0.00602860       0.01047164
O        5.34908919       3.51265976      19.29621249  T       90       0.01156446       0.01553249      -0.00889772
O        7.65801246       6.24808252      19.28147367  T       91      -0.00211579      -0.00504602      -0.00368470
In      -1.85024206       5.54131976      19.47315782  T       92      -0.00029503       0.00759749      -0.00180385
In      -1.67283057      11.48671546      19.34752233  T       93      -0.00335887      -0.00665633       0.00277142
In       7.00953789       1.94728696      19.38265932  T       94       0.00173276      -0.00752751       0.00887607
In       3.37702737       8.15951266      19.41763100  T       95      -0.02178763       0.00242798      -0.00208854
In       5.52426535       5.60004377      19.23075400  T       96      -0.00556944      -0.02308640      -0.00715548
In       9.41101652       5.03114773      19.19732905  T       97       0.01355672       0.00051770      -0.00368255
In      -0.00977200       8.32367447      19.70132937  T       98       0.00723958      -0.00273433      -0.00223470
In       3.61244655       1.99090589      19.45219049  T       99      -0.01307737       0.01099301      -0.00185676
In      10.97248967       2.15453029      19.58541677  T      100      -0.00597208      -0.01224063      -0.01907025
In       7.18112071       8.47685474      19.45779020  T      101       0.00989578       0.01189046      -0.01178522
In      -5.46625400      11.33917658      19.69747654  T      102      -0.00521012      -0.00901129      -0.00772834
In      -3.32158816       8.59606152      19.58167973  T      103       0.00578930       0.01888647       0.00470565
In       0.20979184       2.25029671      19.69202729  T      104      -0.00133108      -0.00829661       0.00338091
In       1.49229078       5.41080732      19.60721361  T      105       0.00195925       0.01690885       0.00615786
In       1.82486506      11.34510225      19.70472095  T      106       0.00151318      -0.00982285      -0.01803149
In       5.36742853      11.80690321      19.67292531  T      107      -0.00812901      -0.00413600      -0.00390011
O        1.83527609       0.84994861      20.13873654  T      108       0.00051253       0.00572808      -0.00409853
O        7.07582979      10.59309506      20.15924126  T      109       0.00188830      -0.00570530       0.00016347
O       12.95030636       1.23674255      20.08812787  T      110       0.01619460       0.00447816       0.00511268
O        5.34445352       7.57305140      20.05822183  T      111       0.01459122       0.00715474       0.00018319
O       11.16160395       4.23431136      20.04524272  T      112      -0.00505709       0.00157493       0.00611013
O        5.24633159       0.84578354      19.98137804  T      113       0.00189170       0.00297468       0.00040802
O       -0.22241666       4.27511996      20.25936418  T      114      -0.00604805      -0.00511648      -0.00092304
O       -3.49051767      10.67356845      20.21831914  T      115       0.00505298      -0.00300215      -0.00179994
O        3.85240821      10.23555115      20.39714352  T      116      -0.00382787       0.00629480       0.00977492
O       -1.79171047       7.45445704      20.58941020  T      117      -0.00880083      -0.00153428      -0.00596946
O       -0.06266728      10.33791053      20.64182241  T      118      -0.00433464       0.00556922       0.00525725
O        1.73124283       7.33346664      20.59605394  T      119       0.00014932       0.00092332      -0.00056916
P        8.98783842       1.00741243      21.98642886  T        0       0.00207494      -0.00354144       0.00145721
O        9.06996887      -0.52079191      21.70623774  T        0       0.00525629       0.00461388       0.01872835
O       10.28089331       1.71810121      21.57351017  T        0      -0.00780213      -0.00975212       0.01368182
O        7.71151681       1.65025457      21.42396382  T        0      -0.00240988      -0.00243723      -0.00196923
C        8.88294327       1.12628353      23.79341820  T        0      -0.00100219       0.00118698       0.00621521
H        7.97573064       0.61380020      24.13103475  T        0      -0.00322637       0.00935233       0.00386442
H        9.76754737       0.64427091      24.22265255  T        0      -0.00199126      -0.00199459       0.00211336
H        8.85063207       2.18126971      24.08559667  T        0      -0.00108013       0.00274208      -0.00760717
H        7.29116401      -2.11520827      21.60092673  T        0      -0.00451850       0.01242579       0.00216764
H       11.18284959      -2.48297305      21.36794009  T        0      -0.01197819       0.01583230       0.00506276
