130
Lattice="14.567458257780915 0.0 0.0 -7.283729128890462 12.615788919807672 0.0 0.0 0.0 33.04905420593702" Properties=species:S:1:pos:R:3:move_mask:L:1:spacegroup_kinds:I:1:forces:R:3 spacegroup="P 1" unit_cell=conventional occupancy="_JSON {\"0\": {\"O\": 1.0}, \"1\": {\"O\": 1.0}, \"2\": {\"O\": 1.0}, \"3\": {\"O\": 1.0}, \"4\": {\"O\": 1.0}, \"5\": {\"O\": 1.0}, \"6\": {\"O\": 1.0}, \"7\": {\"O\": 1.0}, \"8\": {\"O\": 1.0}, \"9\": {\"O\": 1.0}, \"10\": {\"O\": 1.0}, \"11\": {\"O\": 1.0}, \"12\": {\"In\": 1.0}, \"13\": {\"In\": 1.0}, \"14\": {\"In\": 1.0}, \"15\": {\"In\": 1.0}, \"16\": {\"In\": 1.0}, \"17\": {\"In\": 1.0}, \"18\": {\"In\": 1.0}, \"19\": {\"In\": 1.0}, \"20\": {\"In\": 1.0}, \"21\": {\"In\": 1.0}, \"22\": {\"In\": 1.0}, \"23\": {\"In\": 1.0}, \"24\": {\"In\": 1.0}, \"25\": {\"In\": 1.0}, \"26\": {\"In\": 1.0}, \"27\": {\"In\": 1.0}, \"28\": {\"O\": 1.0}, \"29\": {\"O\": 1.0}, \"30\": {\"O\": 1.0}, \"31\": {\"O\": 1.0}, \"32\": {\"O\": 1.0}, \"33\": {\"O\": 1.0}, \"34\": {\"O\": 1.0}, \"35\": {\"O\": 1.0}, \"36\": {\"O\": 1.0}, \"37\": {\"O\": 1.0}, \"38\": {\"O\": 1.0}, \"39\": {\"O\": 1.0}, \"40\": {\"O\": 1.0}, \"41\": {\"O\": 1.0}, \"42\": {\"O\": 1.0}, \"43\": {\"O\": 1.0}, \"44\": {\"O\": 1.0}, \"45\": {\"O\": 1.0}, \"46\": {\"O\": 1.0}, \"47\": {\"O\": 1.0}, \"48\": {\"O\": 1.0}, \"49\": {\"O\": 1.0}, \"50\": {\"O\": 1.0}, \"51\": {\"O\": 1.0}, \"52\": {\"In\": 1.0}, \"53\": {\"In\": 1.0}, \"54\": {\"In\": 1.0}, \"55\": {\"In\": 1.0}, \"56\": {\"In\": 1.0}, \"57\": {\"In\": 1.0}, \"58\": {\"In\": 1.0}, \"59\": {\"In\": 1.0}, \"60\": {\"In\": 1.0}, \"61\": {\"In\": 1.0}, \"62\": {\"In\": 1.0}, \"63\": {\"In\": 1.0}, \"64\": {\"In\": 1.0}, \"65\": {\"In\": 1.0}, \"66\": {\"In\": 1.0}, \"67\": {\"In\": 1.0}, \"68\": {\"O\": 1.0}, \"69\": {\"O\": 1.0}, \"70\": {\"O\": 1.0}, \"71\": {\"O\": 1.0}, \"72\": {\"O\": 1.0}, \"73\": {\"O\": 1.0}, \"74\": {\"O\": 1.0}, \"75\": {\"O\": 1.0}, \"76\": {\"O\": 1.0}, \"77\": {\"O\": 1.0}, \"78\": {\"O\": 1.0}, \"79\": {\"O\": 1.0}, \"80\": {\"O\": 1.0}, \"81\": {\"O\": 1.0}, \"82\": {\"O\": 1.0}, \"83\": {\"O\": 1.0}, \"84\": {\"O\": 1.0}, \"85\": {\"O\": 1.0}, \"86\": {\"O\": 1.0}, \"87\": {\"O\": 1.0}, \"88\": {\"O\": 1.0}, \"89\": {\"O\": 1.0}, \"90\": {\"O\": 1.0}, \"91\": {\"O\": 1.0}, \"92\": {\"In\": 1.0}, \"93\": {\"In\": 1.0}, \"94\": {\"In\": 1.0}, \"95\": {\"In\": 1.0}, \"96\": {\"In\": 1.0}, \"97\": {\"In\": 1.0}, \"98\": {\"In\": 1.0}, \"99\": {\"In\": 1.0}, \"100\": {\"In\": 1.0}, \"101\": {\"In\": 1.0}, \"102\": {\"In\": 1.0}, \"103\": {\"In\": 1.0}, \"104\": {\"In\": 1.0}, \"105\": {\"In\": 1.0}, \"106\": {\"In\": 1.0}, \"107\": {\"In\": 1.0}, \"108\": {\"O\": 1.0}, \"109\": {\"O\": 1.0}, \"110\": {\"O\": 1.0}, \"111\": {\"O\": 1.0}, \"112\": {\"O\": 1.0}, \"113\": {\"O\": 1.0}, \"114\": {\"O\": 1.0}, \"115\": {\"O\": 1.0}, \"116\": {\"O\": 1.0}, \"117\": {\"O\": 1.0}, \"118\": {\"O\": 1.0}, \"119\": {\"O\": 1.0}}" energy=-716.00146484375 free_energy=-716.00146484375 stress="0.006951913703233004 0.00018353007908444852 6.965746433706954e-05 0.00018353007908444852 0.0062636430375278 4.6028699216549285e-06 6.965746433706954e-05 4.6028699216549285e-06 0.0001411351840943098" pbc="T T T"
O        5.56112551       5.29730098      12.44442493  F        0      -0.00730304       0.01464584       0.02075410
O        7.19929797       2.16742567      12.44442488  F        1      -0.00052980      -0.00608784       0.01078224
O        9.09076378       5.15106294      12.44442506  F        2      -0.00669369       0.00702095       0.01243770
O        3.56236441       2.32744963      12.81467041  F        3       0.00421792      -0.00725637      -0.00365978
O       10.77064547       1.92137361      12.81467059  F        4      -0.00448075      -0.00316522      -0.00622177
O        7.51817736       8.36696557      12.81467060  F        5      -0.00640520      -0.00249746       0.01283646
O       -3.86713652       8.43746206      12.95843886  F        6       0.01574199       0.00369251       0.02988201
O        1.91024068       5.04801920      12.95843918  F        7       0.01226518       0.03956816       0.01854330
O        1.95689587      11.74609578      12.95843921  F        8      -0.01407267      -0.02955978       0.02779299
O       -5.62751792      11.43742505      12.90107995  F        9       0.01329202       0.00226049       0.01199734
O        0.19238766       2.02350350      12.90107932  F       10      -0.01429809      -0.00325000      -0.00224137
O        5.43512990      11.77064967      12.90107909  F       11       0.00025009      -0.03762164       0.01240623
In       2.02827288       0.93415595      13.34696164  F       12      -0.00125283       0.01990336       0.02914754
In       5.45297263       1.43044201      13.46548669  F       13      -0.00071689       0.00722849      -0.03069434
In       5.79604177       7.17815473      13.46548635  F       14       0.01185244      -0.01247217      -0.06290270
In       7.07859496      10.39217548      13.34696140  F       15       0.01135560       0.00369450      -0.01392448
In      10.60217256       4.00719198      13.46548647  F       16       0.02612500       0.00482777      -0.01528612
In      12.74431985       1.28945811      13.34696112  F       17      -0.00812330       0.01879548       0.02983014
In      -3.76992867      10.45841758      13.58493911  F       18      -0.00863016       0.01760474      -0.05109687
In       0.11143913       4.12172609      13.58493797  F       19      -0.01249131      -0.02154996       0.03270146
In       7.28372934       4.20526284      13.28077194  F       20       0.00074251      -0.02064013      -0.02571001
In       3.65848992      10.65143468      13.58493907  F       21       0.00631073       0.02995579      -0.04589003
In      -2.12514371       7.57248039      13.82744761  F       22      -0.03664574      -0.01991873      -0.05853675
In       1.78834112       6.98912009      13.82744861  F       23      -0.01454174      -0.06112395      -0.09564465
In       3.89762555       4.37439996      13.55369945  F       24       0.00816932      -0.03876796      -0.01298504
In       0.33680320      10.66997741      13.82744770  F       25       0.01317105       0.04608083      -0.06424230
In       8.83030441       1.18824328      13.55369950  F       26       0.00792811       0.02037159      -0.01258218
In       9.12325787       7.05314622      13.55369981  F       27       0.00420041      -0.02860570      -0.07853735
O        1.94314284       9.09920259      13.79983277  F       28       0.00360131      -0.00377792       0.06674394
O       -0.37515974       6.38337672      13.79983300  F       29       0.02677682       0.02895764       0.04288328
O       -1.56798334       9.74899853      13.79983313  F       30      -0.00423092      -0.00928895       0.04499260
O       -1.90665604       3.49451490      14.07374983  F       31      -0.00811627       0.00304228      -0.02722517
O       -3.30406258      12.51974383      14.07375025  F       32       0.01646170      -0.02321446       0.00895865
O        5.21071859       9.21731872      14.07374980  F       33      -0.01935804      -0.02269557       0.06871736
O        6.95268262       0.11029125      14.35625235  F       34      -0.00605327      -0.02129622       0.03244919
O        3.90290295       6.53944318      14.35625252  F       35      -0.01018913       0.05182636       0.10238323
O       10.99560128       5.96605484      14.35625280  F       36      -0.01740411       0.03596711       0.01805143
O        5.60077915       3.29585311      14.56420047  F       37      -0.00146180       0.03187399       0.01279020
O        8.91277589       3.20249084      14.56420075  F       38      -0.01818906      -0.00059897       0.02683324
O        7.33763173       6.11744518      14.56420087  F       39       0.01819745       0.01461058       0.06431347
O        1.68336921       1.02548187      15.48953070  F       40       0.05768185      -0.03139456      -0.03429350
O       12.83768043       0.94510034      15.48953027  F       41      -0.06429259      -0.02783956      -0.01559803
O        7.33013789      10.64520717      15.48953039  F       42       0.00614975      -0.04350963       0.04065569
O       -3.87048772      10.25806959      15.75644575  F       43       0.04651450      -0.03560761       0.09202980
O        0.33522381       4.13481358      15.75644581  F       44       0.04914311       0.11204591      -0.05578334
O        3.53526358      10.83869431      15.75644572  F       45      -0.02269825      -0.10925457       0.05986065
O        9.24484356       0.74344663      15.94429150  F       46       0.00911117      -0.02367660      -0.00650005
O        3.30515102       4.23779662      15.94429168  F       47       0.04268155       0.11333662       0.03488818
O        9.30119327       7.63454631      15.94429132  F       48       0.10363796      -0.03252968       0.16195261
O       -1.89390768       7.68105065      15.98554452  F       49       0.04017432       0.05167672       0.09428453
O        1.57869822       7.13509120      15.98554413  F       50      -0.08441180       0.01860177       0.17018408
O        0.31520971      10.41543579      15.98554439  F       51      -0.05877499      -0.07769412       0.10485925
In      -1.57901381       3.03754313      16.29163881  F       52       0.10786980       0.16928320       0.27315506
In      -3.86363272      12.46448245      16.29163869  F       53      -0.04383586       0.12841274      -0.07029590
In      -0.30746998       6.17668715      16.39885574  F       54      -0.18217412      -0.19393554       0.58898598
In      -1.78082649       9.79372205      16.39885556  F       55      -0.03528115       0.03096338      -0.28690985
In       2.08829635       9.26116873      16.39885555  F       56      -0.05162198       0.12687573      -0.47473687
In       5.44264624       9.72955081      16.29163837  F       57       0.13006587       0.14458026      -0.14978299
In      14.56745775       0.00000023      16.52452729  F       58      -0.00493056       0.17297949      -0.08229445
In       7.28372884       0.00000046      16.52452727  F       59       0.06934074       0.11055243      -0.13041873
In       3.64186448       6.30789445      16.52452688  F       60      -0.07902027      -0.24080396      -0.05442262
In      -3.64186467       6.30789479      16.52452729  F       61       0.23666197      -0.17502116       0.14234394
In       9.06455585       2.82206686      16.65019864  F       62       0.01110828      -0.08253894      -0.00056800
In       1.84108280       2.88623741      16.75741682  F       63      -0.11630136       0.03298761       0.14134373
In       5.19543306       3.35462016      16.65019954  F       64      -0.03010299      -0.09873090      -0.08474290
In      11.14736129       0.15130547      16.75741597  F       65       0.00060402       0.07377265      -0.08665068
In       7.59119877       6.43910216      16.65019924  F       66      -0.00864945      -0.03933438      -0.07075123
In       8.86274257       9.57824538      16.75741545  F       67      -0.07514791       0.10336654      -0.25494397
O        9.17763668       4.93473784      17.06350958  F       68       0.12759575       0.24925353       0.13337970
O        6.96851909       2.20035367      17.06350993  F       69      -0.05114838       0.00284413      -0.05014925
O        5.70503103       5.48069763      17.06350990  F       70      -0.17670743       0.08749917       0.13269821
O       -2.01746347       4.98124236      17.10476289  F       71      -0.11031000       0.39219323      -0.25422773
O       -1.96111486      11.87234229      17.10476307  F       72       0.01641047      -0.12293383       0.16734362
O        3.97857827       8.37799246      17.10476382  F       73       0.05489558      -0.00289552       0.15212564
O        6.94850543       8.48097521      17.29260816  F       74      -0.06712070      -0.00807322       0.05149526
O       11.15421650       2.35771879      17.29260829  F       75      -0.00936417      -0.02718323       0.01269666
O        3.74846506       1.77709453      17.29260778  F       76       0.15590768      -0.15505324      -0.08347249
O       -0.04640858       1.97058198      17.55952389  F       77       0.12150830      -0.68313926      -0.60360861
O       -5.55395094      11.67068958      17.55952349  F       78       0.00971957      -0.04367880       0.06158392
O        5.60035973      11.59030666      17.55952404  F       79      -0.04316833      -0.06362263       0.04637976
O       -1.65985253       9.40133629      18.48691388  T       80      -0.00024514       0.00570855      -0.00252801
O        1.72042637       9.36303896      18.46727774  T       81       0.00235965       0.01388430       0.01455569
O       -0.06889126       6.60968569      18.58437682  T       82       0.01181249       0.00065723       0.01184279
O        3.32197263       6.12712258      18.72689790  T       83      -0.00293899       0.00220388      -0.00357697
O       -3.62066772       6.66006562      18.78567088  T       84       0.00293833       0.00731745      -0.00909996
O        0.32923714      12.50726111      18.68510371  T       85       0.00011027       0.00619702       0.00574850
O        9.17048922       9.12008550      18.95499572  T       86      -0.01092918       0.01076674      -0.00187346
O        2.16399976       3.36317089      18.95312394  T       87       0.00353903       0.01761293       0.00143982
O       10.58901752       0.10234972      18.97378271  T       88      -0.00386626       0.00637203      -0.00819795
O        8.85316115       2.86547095      19.21562843  T       89       0.00385261      -0.00308475       0.00384605
O        5.36431489       3.52393685      19.25786383  T       90      -0.00317122       0.00236976      -0.00355619
O        7.65835437       6.23892505      19.23557087  T       91      -0.00409049       0.00037938       0.00155622
In      -1.84250994       5.48628966      19.61694416  T       92      -0.00068423       0.00902720       0.01509508
In      -1.55697092      11.46643861      19.47282199  T       93      -0.00294969      -0.02260654      -0.00862061
In       6.95737452       1.95669382      19.21718643  T       94      -0.00047586      -0.00002885       0.00277866
In       3.47801891       8.30601297      19.40781725  T       95       0.00146255       0.02583083       0.00246432
In       5.47622005       5.61696078      19.22460162  T       96       0.00999553       0.00413459       0.00218020
In       9.39431071       5.03430045      19.22533330  T       97      -0.00407434      -0.00126479      -0.00335634
In       0.03238914       8.51526078      19.64526977  T       98      -0.02644475       0.00814304      -0.00308073
In       3.64917579       1.95859073      19.47016112  T       99       0.01158716       0.01407734       0.00070041
In      11.07162250       2.16184555      19.45734824  T      100      -0.01445236      -0.00409308       0.00754820
In       7.17100158       8.48013529      19.46177975  T      101      -0.00577039      -0.00651828      -0.01134932
In      -5.48684998      11.34038746      19.69753678  T      102       0.01762321       0.00265572       0.00062606
In      -3.39948070       8.68193200      19.54490290  T      103       0.02227009      -0.01836760      -0.00563999
In       0.21959609       2.11145268      19.66514901  T      104      -0.00382366       0.01413250      -0.01871630
In       1.48225878       5.32122440      19.62297022  T      105      -0.00621608       0.00159809      -0.00208275
In       1.84826425      11.23587704      19.59820402  T      106      -0.00046678      -0.00528250      -0.00093843
In       5.26334867      11.68332083      19.70090454  T      107       0.00900942       0.00280782       0.00361323
O        1.86433148       0.82682094      20.18324303  T      108       0.00205594      -0.00676158       0.00728959
O        7.09045229      10.57055081      20.14274166  T      109       0.00554058       0.00967091       0.00067315
O       12.89996226       1.14839239      20.18856468  T      110      -0.00228515      -0.00037833      -0.00125396
O        5.37927281       7.55193630      20.09757212  T      111       0.00007951       0.00843231      -0.00631070
O       11.08834691       4.16370698      20.11773831  T      112      -0.01045310       0.00082226       0.00989681
O        5.34425140       0.88154614      20.10283612  T      113      -0.00739655       0.00316148       0.01289606
O       -0.33116584       4.07510079      19.45729483  T      114      -0.01278025       0.00325954       0.00277911
O       -3.50021641      10.72877395      20.21241620  T      115      -0.00821605       0.01892821       0.00813049
O        3.73443512      10.29943522      20.23837798  T      116      -0.00908300      -0.01576847      -0.00017589
O       -1.83708587       7.73685970      20.68945392  T      117       0.00354874       0.00370869       0.02231485
O        0.08373866      10.47606034      20.56911890  T      118       0.00905092       0.00704642       0.00732177
O        1.77933615       7.52748646      20.58037971  T      119       0.00641945      -0.00649586       0.00490421
P        0.17273163       5.56755307      22.49040384  T        0      -0.00083514       0.02416867       0.00138843
O        1.32618968       4.85516143      21.70036292  T        0       0.00187075       0.01061541       0.00633213
O        0.47619106       7.03659521      22.77099746  T        0       0.01337644       0.00963259       0.01420125
O       -1.20695025       5.39316763      21.80729515  T        0       0.00063694       0.00380152       0.00305039
C        0.10647452       4.59223183      24.04056496  T        0      -0.01514409       0.00147647      -0.00991926
H       -0.05241911       3.54025851      23.77246404  T        0      -0.01032288      -0.00337350      -0.00340200
H        1.06170003       4.69765162      24.56402918  T        0      -0.01912218      -0.00341644      -0.00294855
H       -0.71431827       4.94750920      24.67081194  T        0      -0.00042877      -0.00354673       0.00775948
H       -1.70928908       7.47885786      21.62871827  T        0      -0.00681543       0.00475565      -0.02163786
H        1.55095516       7.45173810      21.56620964  T        0      -0.00684954       0.00431756       0.00239044
