130
Lattice="14.567458257780915 0.0 0.0 -7.283729128890462 12.615788919807672 0.0 0.0 0.0 33.04905420593702" Properties=species:S:1:pos:R:3:move_mask:L:1:spacegroup_kinds:I:1:forces:R:3 spacegroup="P 1" unit_cell=conventional occupancy="_JSON {\"0\": {\"O\": 1.0}, \"1\": {\"O\": 1.0}, \"2\": {\"O\": 1.0}, \"3\": {\"O\": 1.0}, \"4\": {\"O\": 1.0}, \"5\": {\"O\": 1.0}, \"6\": {\"O\": 1.0}, \"7\": {\"O\": 1.0}, \"8\": {\"O\": 1.0}, \"9\": {\"O\": 1.0}, \"10\": {\"O\": 1.0}, \"11\": {\"O\": 1.0}, \"12\": {\"In\": 1.0}, \"13\": {\"In\": 1.0}, \"14\": {\"In\": 1.0}, \"15\": {\"In\": 1.0}, \"16\": {\"In\": 1.0}, \"17\": {\"In\": 1.0}, \"18\": {\"In\": 1.0}, \"19\": {\"In\": 1.0}, \"20\": {\"In\": 1.0}, \"21\": {\"In\": 1.0}, \"22\": {\"In\": 1.0}, \"23\": {\"In\": 1.0}, \"24\": {\"In\": 1.0}, \"25\": {\"In\": 1.0}, \"26\": {\"In\": 1.0}, \"27\": {\"In\": 1.0}, \"28\": {\"O\": 1.0}, \"29\": {\"O\": 1.0}, \"30\": {\"O\": 1.0}, \"31\": {\"O\": 1.0}, \"32\": {\"O\": 1.0}, \"33\": {\"O\": 1.0}, \"34\": {\"O\": 1.0}, \"35\": {\"O\": 1.0}, \"36\": {\"O\": 1.0}, \"37\": {\"O\": 1.0}, \"38\": {\"O\": 1.0}, \"39\": {\"O\": 1.0}, \"40\": {\"O\": 1.0}, \"41\": {\"O\": 1.0}, \"42\": {\"O\": 1.0}, \"43\": {\"O\": 1.0}, \"44\": {\"O\": 1.0}, \"45\": {\"O\": 1.0}, \"46\": {\"O\": 1.0}, \"47\": {\"O\": 1.0}, \"48\": {\"O\": 1.0}, \"49\": {\"O\": 1.0}, \"50\": {\"O\": 1.0}, \"51\": {\"O\": 1.0}, \"52\": {\"In\": 1.0}, \"53\": {\"In\": 1.0}, \"54\": {\"In\": 1.0}, \"55\": {\"In\": 1.0}, \"56\": {\"In\": 1.0}, \"57\": {\"In\": 1.0}, \"58\": {\"In\": 1.0}, \"59\": {\"In\": 1.0}, \"60\": {\"In\": 1.0}, \"61\": {\"In\": 1.0}, \"62\": {\"In\": 1.0}, \"63\": {\"In\": 1.0}, \"64\": {\"In\": 1.0}, \"65\": {\"In\": 1.0}, \"66\": {\"In\": 1.0}, \"67\": {\"In\": 1.0}, \"68\": {\"O\": 1.0}, \"69\": {\"O\": 1.0}, \"70\": {\"O\": 1.0}, \"71\": {\"O\": 1.0}, \"72\": {\"O\": 1.0}, \"73\": {\"O\": 1.0}, \"74\": {\"O\": 1.0}, \"75\": {\"O\": 1.0}, \"76\": {\"O\": 1.0}, \"77\": {\"O\": 1.0}, \"78\": {\"O\": 1.0}, \"79\": {\"O\": 1.0}, \"80\": {\"O\": 1.0}, \"81\": {\"O\": 1.0}, \"82\": {\"O\": 1.0}, \"83\": {\"O\": 1.0}, \"84\": {\"O\": 1.0}, \"85\": {\"O\": 1.0}, \"86\": {\"O\": 1.0}, \"87\": {\"O\": 1.0}, \"88\": {\"O\": 1.0}, \"89\": {\"O\": 1.0}, \"90\": {\"O\": 1.0}, \"91\": {\"O\": 1.0}, \"92\": {\"In\": 1.0}, \"93\": {\"In\": 1.0}, \"94\": {\"In\": 1.0}, \"95\": {\"In\": 1.0}, \"96\": {\"In\": 1.0}, \"97\": {\"In\": 1.0}, \"98\": {\"In\": 1.0}, \"99\": {\"In\": 1.0}, \"100\": {\"In\": 1.0}, \"101\": {\"In\": 1.0}, \"102\": {\"In\": 1.0}, \"103\": {\"In\": 1.0}, \"104\": {\"In\": 1.0}, \"105\": {\"In\": 1.0}, \"106\": {\"In\": 1.0}, \"107\": {\"In\": 1.0}, \"108\": {\"O\": 1.0}, \"109\": {\"O\": 1.0}, \"110\": {\"O\": 1.0}, \"111\": {\"O\": 1.0}, \"112\": {\"O\": 1.0}, \"113\": {\"O\": 1.0}, \"114\": {\"O\": 1.0}, \"115\": {\"O\": 1.0}, \"116\": {\"O\": 1.0}, \"117\": {\"O\": 1.0}, \"118\": {\"O\": 1.0}, \"119\": {\"O\": 1.0}}" energy=-715.41455078125 free_energy=-715.41455078125 stress="0.006516328547149897 0.00022016461298335344 -0.00011821419320767745 0.00022016461298335344 0.006295122671872377 5.076076922705397e-05 -0.00011821419320767745 5.076076922705397e-05 0.00012243572564329952" pbc="T T T"
O        5.56112551       5.29730098      12.44442493  F        0      -0.00548415       0.00509401       0.02735913
O        7.19929797       2.16742567      12.44442488  F        1       0.00065807      -0.00705105       0.02514625
O        9.09076378       5.15106294      12.44442506  F        2       0.00950706       0.00714405       0.02818346
O        3.56236441       2.32744963      12.81467041  F        3       0.00540772      -0.00305769       0.01161361
O       10.77064547       1.92137361      12.81467059  F        4      -0.00136940       0.00234708       0.00886148
O        7.51817736       8.36696557      12.81467060  F        5      -0.00212664      -0.00170469       0.01405495
O       -3.86713652       8.43746206      12.95843886  F        6       0.02329266      -0.01513892       0.04490855
O        1.91024068       5.04801920      12.95843918  F        7      -0.00253072       0.03412745       0.03342706
O        1.95689587      11.74609578      12.95843921  F        8      -0.01855388      -0.01653911       0.03736851
O       -5.62751792      11.43742505      12.90107995  F        9       0.01023092       0.01208713       0.02602696
O        0.19238766       2.02350350      12.90107932  F       10      -0.01936434       0.00004040       0.02146071
O        5.43512990      11.77064967      12.90107909  F       11       0.00518865      -0.02058709       0.02614969
In       2.02827288       0.93415595      13.34696164  F       12       0.00721157       0.01182626      -0.04383473
In       5.45297263       1.43044201      13.46548669  F       13       0.00057847       0.00834306      -0.06490107
In       5.79604177       7.17815473      13.46548635  F       14       0.00119481      -0.00225586      -0.06461729
In       7.07859496      10.39217548      13.34696140  F       15       0.00159972      -0.00957448      -0.04481198
In      10.60217256       4.00719198      13.46548647  F       16      -0.00341006      -0.00912328      -0.05979683
In      12.74431985       1.28945811      13.34696112  F       17      -0.01036801       0.00204940      -0.02528785
In      -3.76992867      10.45841758      13.58493911  F       18      -0.03208598       0.00476288      -0.00717135
In       0.11143913       4.12172609      13.58493797  F       19       0.01853567      -0.02804860       0.01842152
In       7.28372934       4.20526284      13.28077194  F       20       0.00044652      -0.00250209      -0.04920110
In       3.65848992      10.65143468      13.58493907  F       21       0.00578505       0.01606007      -0.02710645
In      -2.12514371       7.57248039      13.82744761  F       22      -0.03969508      -0.00494809      -0.15309758
In       1.78834112       6.98912009      13.82744861  F       23       0.01121951      -0.04223678      -0.10003477
In       3.89762555       4.37439996      13.55369945  F       24       0.01038513      -0.01468902      -0.05543097
In       0.33680320      10.66997741      13.82744770  F       25       0.02681807       0.03162016      -0.10043934
In       8.83030441       1.18824328      13.55369950  F       26       0.00763331       0.01880327      -0.05460127
In       9.12325787       7.05314622      13.55369981  F       27      -0.02285295      -0.01262992      -0.08122404
O        1.94314284       9.09920259      13.79983277  F       28      -0.01876944       0.00352561       0.05705726
O       -0.37515974       6.38337672      13.79983300  F       29      -0.00328639       0.02450797       0.06168067
O       -1.56798334       9.74899853      13.79983313  F       30      -0.00120091      -0.03115274       0.06678393
O       -1.90665604       3.49451490      14.07374983  F       31      -0.02170531       0.01448822       0.05271871
O       -3.30406258      12.51974383      14.07375025  F       32       0.00985035       0.00929010       0.06088385
O        5.21071859       9.21731872      14.07374980  F       33       0.00402948      -0.01156780       0.05210374
O        6.95268262       0.11029125      14.35625235  F       34      -0.00357288      -0.01791257       0.05295525
O        3.90290295       6.53944318      14.35625252  F       35      -0.02041363       0.02207172       0.07661709
O       10.99560128       5.96605484      14.35625280  F       36       0.02419865       0.03579405       0.07553275
O        5.60077915       3.29585311      14.56420047  F       37      -0.00813871       0.01369935       0.06967127
O        8.91277589       3.20249084      14.56420075  F       38      -0.01043352      -0.01710345       0.05888057
O        7.33763173       6.11744518      14.56420087  F       39       0.02350511       0.00991599       0.06931663
O        1.68336921       1.02548187      15.48953070  F       40       0.02100007      -0.01712657       0.12110139
O       12.83768043       0.94510034      15.48953027  F       41       0.02231834       0.01149665       0.08866780
O        7.33013789      10.64520717      15.48953039  F       42       0.04591326      -0.01500134       0.11681246
O       -3.87048772      10.25806959      15.75644575  F       43      -0.10645598       0.07593971      -0.05186366
O        0.33522381       4.13481358      15.75644581  F       44      -0.04458812      -0.08782813      -0.10381369
O        3.53526358      10.83869431      15.75644572  F       45       0.01815432      -0.01281118       0.02791638
O        9.24484356       0.74344663      15.94429150  F       46      -0.01949048      -0.00281173       0.07588603
O        3.30515102       4.23779662      15.94429168  F       47       0.01151797      -0.00792467       0.10205983
O        9.30119327       7.63454631      15.94429132  F       48       0.03326914       0.04503775       0.19233289
O       -1.89390768       7.68105065      15.98554452  F       49       0.22589481      -0.00844845       0.31765354
O        1.57869822       7.13509120      15.98554413  F       50      -0.15790048       0.04116949       0.25080639
O        0.31520971      10.41543579      15.98554439  F       51      -0.15136114      -0.09654751       0.20438744
In      -1.57901381       3.03754313      16.29163881  F       52       0.02127291       0.01452801      -0.14738199
In      -3.86363272      12.46448245      16.29163869  F       53       0.06234685      -0.03529548      -0.21702501
In      -0.30746998       6.17668715      16.39885574  F       54       0.29101852      -0.31907853       0.19859411
In      -1.78082649       9.79372205      16.39885556  F       55      -0.31752396      -0.05855925       0.13023065
In       2.08829635       9.26116873      16.39885555  F       56      -0.07641634       0.06132638       0.13003246
In       5.44264624       9.72955081      16.29163837  F       57      -0.01955068       0.06224548      -0.16678929
In      14.56745775       0.00000023      16.52452729  F       58      -0.11260577       0.01875781      -0.26117358
In       7.28372884       0.00000046      16.52452727  F       59       0.05924846       0.08038297      -0.36479637
In       3.64186448       6.30789445      16.52452688  F       60      -0.03006844      -0.09660587      -0.11739423
In      -3.64186467       6.30789479      16.52452729  F       61      -0.08069001       0.00874160      -0.12512262
In       9.06455585       2.82206686      16.65019864  F       62       0.01095372      -0.00858721      -0.19990236
In       1.84108280       2.88623741      16.75741682  F       63      -0.09037172       0.18524942      -0.19716009
In       5.19543306       3.35462016      16.65019954  F       64       0.02491256       0.04970729      -0.22702730
In      11.14736129       0.15130547      16.75741597  F       65       0.02778703      -0.02866504      -0.32637680
In       7.59119877       6.43910216      16.65019924  F       66       0.00737993      -0.07091264      -0.17990632
In       8.86274257       9.57824538      16.75741545  F       67       0.10980456      -0.00027870      -0.32527411
O        9.17763668       4.93473784      17.06350958  F       68       0.00178838       0.03743473       0.12076036
O        6.96851909       2.20035367      17.06350993  F       69       0.01482487       0.00201470       0.16970539
O        5.70503103       5.48069763      17.06350990  F       70       0.00339913      -0.05513757       0.16285914
O       -2.01746347       4.98124236      17.10476289  F       71      -0.41410926       0.13186935      -0.18932587
O       -1.96111486      11.87234229      17.10476307  F       72       0.24444863       0.37006384      -0.14420000
O        3.97857827       8.37799246      17.10476382  F       73       0.12681255      -0.09943613       0.04161173
O        6.94850543       8.48097521      17.29260816  F       74       0.13121957       0.02049618       0.19060840
O       11.15421650       2.35771879      17.29260829  F       75      -0.01129482      -0.08271027      -0.12499281
O        3.74846506       1.77709453      17.29260778  F       76       0.03314850      -0.04353023       0.06963445
O       -0.04640858       1.97058198      17.55952389  F       77       0.02871197       0.01665920       0.39088854
O       -5.55395094      11.67068958      17.55952349  F       78      -0.01299788       0.03345463       0.14268938
O        5.60035973      11.59030666      17.55952404  F       79       0.04603490      -0.02250765       0.14587542
O       -2.06052812       9.59453297      18.51093893  T       80       0.00125217       0.00751346      -0.00828903
O        1.73742762       9.34482592      18.50262230  T       81      -0.00944164      -0.00593432       0.00677708
O        0.00400782       5.95769400      18.52394356  T       82      -0.00643465      -0.01524430       0.00244402
O        3.40463247       6.07973817      18.70892985  T       83       0.00389005      -0.00732404      -0.00149613
O       -3.70331179       6.66227546      18.71417475  T       84      -0.00576848       0.00356156      -0.00527199
O        0.35769737      12.49082907      18.68035387  T       85      -0.00037903       0.01179106       0.00201815
O        9.17818518       9.21649528      19.00974130  T       86      -0.00109032       0.00183454      -0.00028034
O        2.05175908       3.36671750      18.97285663  T       87       0.00924897      -0.00555956      -0.02050018
O       10.60664818       0.08720716      18.96436085  T       88      -0.00459585       0.00571421       0.00949311
O        8.84684403       2.85842729      19.28667402  T       89      -0.00466305       0.01017742       0.00385633
O        5.34105499       3.49871756      19.27712265  T       90       0.00700941       0.01120958      -0.00691289
O        7.67264487       6.23875704      19.25279430  T       91       0.00060925      -0.00739282      -0.00351048
In      -1.88698257       5.57528874      19.42049180  T       92       0.00645429       0.00094976      -0.01247207
In      -1.48445385      11.43025071      19.39865195  T       93       0.00522606      -0.00142060       0.00295338
In       6.95286455       1.94414146      19.22534565  T       94       0.00064944      -0.01414733       0.00182153
In       3.43750651       8.28890513      19.43193867  T       95       0.00148482      -0.00696574      -0.00883568
In       5.50967062       5.61775536      19.22703561  T       96       0.01392304       0.00479695      -0.00355971
In       9.40714289       5.03026402      19.22549870  T       97       0.00020728       0.00200314      -0.01986489
In       0.29344714       8.55704806      20.88994579  T       98      -0.01248127      -0.01943933      -0.00230569
In       3.65077725       1.97354404      19.44707366  T       99      -0.01710610      -0.00878469       0.01587796
In      11.04717053       2.12215677      19.43954188  T      100       0.00197705      -0.02597259      -0.00069951
In       7.17214617       8.47420013      19.46435542  T      101       0.00719710       0.00256874       0.01083124
In      -5.61124823      11.35739323      19.68511827  T      102       0.00073536      -0.00201578       0.01773573
In      -3.46018133       8.57713066      19.72513176  T      103       0.00689448      -0.00032634       0.00372745
In       0.26881243       2.13214653      19.72681528  T      104      -0.00337652       0.00399926       0.00002799
In       1.62275120       5.41124722      19.69603389  T      105      -0.01690824       0.01152783       0.00470876
In       1.87238077      11.19270605      19.55066549  T      106       0.01084575      -0.00494916      -0.01476242
In       5.23875461      11.68046369      19.70324721  T      107       0.00262781       0.00233412       0.00306435
O        1.89866380       0.80313894      20.16458087  T      108      -0.00236765       0.01050855      -0.00772071
O        7.03521975      10.57031441      20.18264984  T      109      -0.00103265      -0.00737617      -0.00169435
O       12.94149242       1.18397902      20.14248391  T      110      -0.01131302      -0.01793574      -0.00521299
O        5.37685377       7.56860397      20.07659328  T      111       0.00849381      -0.01165411      -0.00367394
O       11.19753950       4.12531290      19.91687108  T      112       0.00554417       0.00502944       0.00436677
O        5.33098582       0.81203395      20.04954091  T      113       0.01342559       0.00063252      -0.00717404
O        0.32474625       3.99749483      20.86435039  T      114      -0.01437035      -0.01059516       0.00950217
O       -3.59503857      10.83008888      20.50794728  T      115       0.00080982      -0.01175439       0.00191808
O        3.72105495      10.30025984      20.30391379  T      116       0.00513422       0.00033954      -0.00487584
O       -1.53908675       7.60487512      20.35860428  T      117       0.00178367       0.01405758       0.01366508
O        0.14446306      10.63061087      20.72960930  T      118       0.00136627       0.00604993      -0.00477380
O        1.93966996       7.29059218      20.75536991  T      119      -0.00620867      -0.00378593       0.00643581
P       -2.05326957       7.16090428      22.02807028  T        0      -0.00017099      -0.00097363      -0.00929685
O       -0.86034260       8.02869517      22.62193438  T        0       0.00378716      -0.00019073      -0.00637400
O       -3.49188478       7.80674844      21.72361667  T        0       0.02056789      -0.00512034       0.00320081
O       -1.79835758       5.64161047      21.66248443  T        0       0.00505838      -0.00229967      -0.00268157
C       -2.65613603       6.74380465      23.78667002  T        0       0.01165436      -0.00418884      -0.01146060
H       -1.84122971       6.23563629      24.30619413  T        0       0.01057252      -0.01120228      -0.00910059
H       -2.91176200       7.68101726      24.28431606  T        0       0.01054591      -0.00412056      -0.00841404
H       -3.53403070       6.09871524      23.69990026  T        0       0.00916633      -0.02126767       0.00550738
H       -0.37612645       4.36910811      21.45585185  T        0       0.00445464       0.00250721      -0.00605804
H       -3.51889666      10.93775254      21.47496329  T        0      -0.01455899       0.00228909       0.00012279
