130
Lattice="14.567458257780915 0.0 0.0 -7.283729128890462 12.615788919807672 0.0 0.0 0.0 33.04905420593702" Properties=species:S:1:pos:R:3:move_mask:L:1:spacegroup_kinds:I:1:forces:R:3 spacegroup="P 1" unit_cell=conventional occupancy="_JSON {\"0\": {\"O\": 1.0}, \"1\": {\"O\": 1.0}, \"2\": {\"O\": 1.0}, \"3\": {\"O\": 1.0}, \"4\": {\"O\": 1.0}, \"5\": {\"O\": 1.0}, \"6\": {\"O\": 1.0}, \"7\": {\"O\": 1.0}, \"8\": {\"O\": 1.0}, \"9\": {\"O\": 1.0}, \"10\": {\"O\": 1.0}, \"11\": {\"O\": 1.0}, \"12\": {\"In\": 1.0}, \"13\": {\"In\": 1.0}, \"14\": {\"In\": 1.0}, \"15\": {\"In\": 1.0}, \"16\": {\"In\": 1.0}, \"17\": {\"In\": 1.0}, \"18\": {\"In\": 1.0}, \"19\": {\"In\": 1.0}, \"20\": {\"In\": 1.0}, \"21\": {\"In\": 1.0}, \"22\": {\"In\": 1.0}, \"23\": {\"In\": 1.0}, \"24\": {\"In\": 1.0}, \"25\": {\"In\": 1.0}, \"26\": {\"In\": 1.0}, \"27\": {\"In\": 1.0}, \"28\": {\"O\": 1.0}, \"29\": {\"O\": 1.0}, \"30\": {\"O\": 1.0}, \"31\": {\"O\": 1.0}, \"32\": {\"O\": 1.0}, \"33\": {\"O\": 1.0}, \"34\": {\"O\": 1.0}, \"35\": {\"O\": 1.0}, \"36\": {\"O\": 1.0}, \"37\": {\"O\": 1.0}, \"38\": {\"O\": 1.0}, \"39\": {\"O\": 1.0}, \"40\": {\"O\": 1.0}, \"41\": {\"O\": 1.0}, \"42\": {\"O\": 1.0}, \"43\": {\"O\": 1.0}, \"44\": {\"O\": 1.0}, \"45\": {\"O\": 1.0}, \"46\": {\"O\": 1.0}, \"47\": {\"O\": 1.0}, \"48\": {\"O\": 1.0}, \"49\": {\"O\": 1.0}, \"50\": {\"O\": 1.0}, \"51\": {\"O\": 1.0}, \"52\": {\"In\": 1.0}, \"53\": {\"In\": 1.0}, \"54\": {\"In\": 1.0}, \"55\": {\"In\": 1.0}, \"56\": {\"In\": 1.0}, \"57\": {\"In\": 1.0}, \"58\": {\"In\": 1.0}, \"59\": {\"In\": 1.0}, \"60\": {\"In\": 1.0}, \"61\": {\"In\": 1.0}, \"62\": {\"In\": 1.0}, \"63\": {\"In\": 1.0}, \"64\": {\"In\": 1.0}, \"65\": {\"In\": 1.0}, \"66\": {\"In\": 1.0}, \"67\": {\"In\": 1.0}, \"68\": {\"O\": 1.0}, \"69\": {\"O\": 1.0}, \"70\": {\"O\": 1.0}, \"71\": {\"O\": 1.0}, \"72\": {\"O\": 1.0}, \"73\": {\"O\": 1.0}, \"74\": {\"O\": 1.0}, \"75\": {\"O\": 1.0}, \"76\": {\"O\": 1.0}, \"77\": {\"O\": 1.0}, \"78\": {\"O\": 1.0}, \"79\": {\"O\": 1.0}, \"80\": {\"O\": 1.0}, \"81\": {\"O\": 1.0}, \"82\": {\"O\": 1.0}, \"83\": {\"O\": 1.0}, \"84\": {\"O\": 1.0}, \"85\": {\"O\": 1.0}, \"86\": {\"O\": 1.0}, \"87\": {\"O\": 1.0}, \"88\": {\"O\": 1.0}, \"89\": {\"O\": 1.0}, \"90\": {\"O\": 1.0}, \"91\": {\"O\": 1.0}, \"92\": {\"In\": 1.0}, \"93\": {\"In\": 1.0}, \"94\": {\"In\": 1.0}, \"95\": {\"In\": 1.0}, \"96\": {\"In\": 1.0}, \"97\": {\"In\": 1.0}, \"98\": {\"In\": 1.0}, \"99\": {\"In\": 1.0}, \"100\": {\"In\": 1.0}, \"101\": {\"In\": 1.0}, \"102\": {\"In\": 1.0}, \"103\": {\"In\": 1.0}, \"104\": {\"In\": 1.0}, \"105\": {\"In\": 1.0}, \"106\": {\"In\": 1.0}, \"107\": {\"In\": 1.0}, \"108\": {\"O\": 1.0}, \"109\": {\"O\": 1.0}, \"110\": {\"O\": 1.0}, \"111\": {\"O\": 1.0}, \"112\": {\"O\": 1.0}, \"113\": {\"O\": 1.0}, \"114\": {\"O\": 1.0}, \"115\": {\"O\": 1.0}, \"116\": {\"O\": 1.0}, \"117\": {\"O\": 1.0}, \"118\": {\"O\": 1.0}, \"119\": {\"O\": 1.0}}" energy=-715.5147094726562 free_energy=-715.5147094726562 stress="0.006717232521623373 0.0003733114281203598 -0.00010900276538450271 0.0003733114281203598 0.006372667849063873 -6.463620957219973e-05 -0.00010900276538450271 -6.463620957219973e-05 1.2266100384294987e-05" pbc="T T T"
O        5.56112551       5.29730098      12.44442493  F        0      -0.01073059       0.00575534       0.01136994
O        7.19929797       2.16742567      12.44442488  F        1      -0.00024298      -0.00940716       0.00714409
O        9.09076378       5.15106294      12.44442506  F        2       0.01121196       0.00174418       0.01248515
O        3.56236441       2.32744963      12.81467041  F        3       0.00517172       0.00352778      -0.00528085
O       10.77064547       1.92137361      12.81467059  F        4      -0.00193572      -0.00379068      -0.00422519
O        7.51817736       8.36696557      12.81467060  F        5      -0.01406568       0.00415766      -0.00232929
O       -3.86713652       8.43746206      12.95843886  F        6       0.03132220      -0.02569652       0.00531673
O        1.91024068       5.04801920      12.95843918  F        7       0.00578555       0.04572621      -0.00064206
O        1.95689587      11.74609578      12.95843921  F        8      -0.01050936      -0.01963919       0.02177358
O       -5.62751792      11.43742505      12.90107995  F        9      -0.00167483       0.02245712      -0.00579607
O        0.19238766       2.02350350      12.90107932  F       10      -0.03017597      -0.00891513      -0.00758326
O        5.43512990      11.77064967      12.90107909  F       11      -0.00061965      -0.02132109       0.01009756
In       2.02827288       0.93415595      13.34696164  F       12       0.01431449       0.00164585      -0.00302188
In       5.45297263       1.43044201      13.46548669  F       13      -0.01252936      -0.01515467      -0.02700943
In       5.79604177       7.17815473      13.46548635  F       14       0.01109590      -0.00683586      -0.03659411
In       7.07859496      10.39217548      13.34696140  F       15       0.01690406      -0.00878775      -0.01307906
In      10.60217256       4.00719198      13.46548647  F       16       0.00716814       0.00149031      -0.03262286
In      12.74431985       1.28945811      13.34696112  F       17       0.00000129       0.01432570      -0.00003390
In      -3.76992867      10.45841758      13.58493911  F       18      -0.05069321      -0.00109803       0.12587529
In       0.11143913       4.12172609      13.58493797  F       19       0.03325817      -0.03872421       0.13854876
In       7.28372934       4.20526284      13.28077194  F       20       0.00071246       0.00474882      -0.01772121
In       3.65848992      10.65143468      13.58493907  F       21       0.01051396       0.01057568      -0.00084335
In      -2.12514371       7.57248039      13.82744761  F       22      -0.04375347       0.00182255      -0.11570434
In       1.78834112       6.98912009      13.82744861  F       23      -0.00497434      -0.05583604      -0.04761565
In       3.89762555       4.37439996      13.55369945  F       24      -0.00051393      -0.01775939      -0.01337083
In       0.33680320      10.66997741      13.82744770  F       25      -0.00390875       0.03011237      -0.06849806
In       8.83030441       1.18824328      13.55369950  F       26      -0.00463522       0.02068122      -0.02790920
In       9.12325787       7.05314622      13.55369981  F       27      -0.00991479       0.00589947      -0.00454026
O        1.94314284       9.09920259      13.79983277  F       28      -0.01735623       0.01511407       0.02371880
O       -0.37515974       6.38337672      13.79983300  F       29      -0.00847659       0.04252443       0.01918405
O       -1.56798334       9.74899853      13.79983313  F       30       0.03094822      -0.04124795       0.01563132
O       -1.90665604       3.49451490      14.07374983  F       31      -0.04623457       0.00905949       0.00654466
O       -3.30406258      12.51974383      14.07375025  F       32       0.01852292       0.03232828      -0.01793556
O        5.21071859       9.21731872      14.07374980  F       33      -0.00411767      -0.00736126       0.01992506
O        6.95268262       0.11029125      14.35625235  F       34       0.02833411      -0.01337481      -0.01491424
O        3.90290295       6.53944318      14.35625252  F       35      -0.02114131       0.02131128       0.03536502
O       10.99560128       5.96605484      14.35625280  F       36       0.03313288       0.03324315       0.02062048
O        5.60077915       3.29585311      14.56420047  F       37      -0.00341539       0.01588434       0.03669572
O        8.91277589       3.20249084      14.56420075  F       38      -0.01018988      -0.03270894       0.02001256
O        7.33763173       6.11744518      14.56420087  F       39       0.01200730       0.00262671       0.02009189
O        1.68336921       1.02548187      15.48953070  F       40       0.02280686      -0.01955935       0.07355188
O       12.83768043       0.94510034      15.48953027  F       41      -0.00012751       0.00541519       0.04987099
O        7.33013789      10.64520717      15.48953039  F       42       0.00872876      -0.01737705       0.06963533
O       -3.87048772      10.25806959      15.75644575  F       43      -0.18678394       0.11090440      -0.31973580
O        0.33522381       4.13481358      15.75644581  F       44      -0.06097513      -0.19796312      -0.38972276
O        3.53526358      10.83869431      15.75644572  F       45       0.00804418      -0.00160515      -0.00451822
O        9.24484356       0.74344663      15.94429150  F       46      -0.01772119      -0.00619474       0.05488618
O        3.30515102       4.23779662      15.94429168  F       47       0.03490266      -0.00925549       0.04795180
O        9.30119327       7.63454631      15.94429132  F       48      -0.02923895       0.04623663       0.09010679
O       -1.89390768       7.68105065      15.98554452  F       49       0.30522203       0.00103217       0.29816329
O        1.57869822       7.13509120      15.98554413  F       50      -0.17343476       0.07060699       0.22943062
O        0.31520971      10.41543579      15.98554439  F       51      -0.13533719      -0.12495658       0.19604754
In      -1.57901381       3.03754313      16.29163881  F       52       0.15590136       0.07835814      -0.02474908
In      -3.86363272      12.46448245      16.29163869  F       53       0.11935907      -0.16929722      -0.08022159
In      -0.30746998       6.17668715      16.39885574  F       54       0.42543095      -0.47362262       0.42772448
In      -1.78082649       9.79372205      16.39885556  F       55      -0.50692564      -0.00316875       0.25528374
In       2.08829635       9.26116873      16.39885555  F       56      -0.04321137       0.00786342       0.18305606
In       5.44264624       9.72955081      16.29163837  F       57       0.00006127       0.03709325      -0.08504692
In      14.56745775       0.00000023      16.52452729  F       58      -0.05544469       0.02094215      -0.14093602
In       7.28372884       0.00000046      16.52452727  F       59      -0.09044436       0.05188708      -0.22893688
In       3.64186448       6.30789445      16.52452688  F       60      -0.03641412      -0.10634562       0.01135870
In      -3.64186467       6.30789479      16.52452729  F       61      -0.18010813       0.00740636      -0.04680454
In       9.06455585       2.82206686      16.65019864  F       62       0.01016448       0.05541650      -0.16943051
In       1.84108280       2.88623741      16.75741682  F       63      -0.17482907       0.27569512      -0.04442417
In       5.19543306       3.35462016      16.65019954  F       64      -0.00845291       0.02479813      -0.12861490
In      11.14736129       0.15130547      16.75741597  F       65       0.03387343      -0.02633686      -0.18793482
In       7.59119877       6.43910216      16.65019924  F       66       0.06719252      -0.07760479      -0.11755832
In       8.86274257       9.57824538      16.75741545  F       67       0.29367810      -0.00952998      -0.10292819
O        9.17763668       4.93473784      17.06350958  F       68      -0.13485861      -0.15001369       0.00284576
O        6.96851909       2.20035367      17.06350993  F       69       0.07955715       0.01369223       0.14980026
O        5.70503103       5.48069763      17.06350990  F       70       0.03663173      -0.07540493       0.08845322
O       -2.01746347       4.98124236      17.10476289  F       71      -0.69271040       0.28162932      -0.39522898
O       -1.96111486      11.87234229      17.10476307  F       72       0.55432004       0.79121232      -0.50149536
O        3.97857827       8.37799246      17.10476382  F       73       0.10059333      -0.11308973       0.00563875
O        6.94850543       8.48097521      17.29260816  F       74       0.13085625      -0.00314355       0.16831467
O       11.15421650       2.35771879      17.29260829  F       75      -0.01326527      -0.06732845      -0.12884051
O        3.74846506       1.77709453      17.29260778  F       76       0.11394855      -0.10969801      -0.05994974
O       -0.04640858       1.97058198      17.55952389  F       77       0.05472761      -0.05537663       0.38480198
O       -5.55395094      11.67068958      17.55952349  F       78      -0.06175371      -0.07297855       0.18534292
O        5.60035973      11.59030666      17.55952404  F       79       0.00588363      -0.02212398       0.07302848
O       -2.41239889       9.80342347      18.44274256  T       80       0.00635774       0.01051217      -0.01097758
O        1.72447231       9.31963632      18.49746948  T       81       0.00224799       0.00062073      -0.00922564
O        0.08855721       5.56227387      18.44877113  T       82      -0.00863421       0.00607156      -0.01407961
O        3.42799024       6.06163800      18.71317946  T       83       0.00143193      -0.01619741      -0.00200183
O       -3.79633741       6.61791278      18.69687881  T       84       0.01382431       0.01168704       0.00195321
O        0.34810390      12.49046627      18.68828955  T       85       0.00865424       0.00522360      -0.00139379
O        9.18098932       9.16913011      19.04507609  T       86      -0.00607553      -0.01175049      -0.00582284
O        2.09825654       3.31241602      18.97997695  T       87       0.00276235       0.00187594      -0.00118783
O       10.60263250       0.08874465      18.97549366  T       88       0.00138718       0.00189289      -0.01053752
O        8.85711416       2.85019522      19.30104050  T       89      -0.00186408       0.00070980       0.00734377
O        5.35471293       3.48251075      19.27536648  T       90       0.00126541       0.02445173       0.00185603
O        7.65822988       6.21348145      19.27014078  T       91      -0.00677371       0.00389260      -0.00348783
In      -1.87173023       5.61003579      19.35174154  T       92       0.00021988      -0.00762086      -0.00049753
In      -1.51678196      11.42356590      19.43007551  T       93      -0.00304316       0.01660528       0.01078697
In       6.95823121       1.93415668      19.22476201  T       94      -0.00080142       0.00141956       0.00461543
In       3.41832111       8.26630482      19.45002159  T       95      -0.00577196      -0.00051976       0.00255003
In       5.51990686       5.60823476      19.22861189  T       96       0.00357541      -0.02049366      -0.00120986
In       9.40703649       5.00979343      19.22725842  T       97       0.00339675       0.00482215      -0.00138132
In       0.13568622       8.42502228      20.67722888  T       98       0.00568411       0.01386744      -0.00922420
In       3.65922394       1.92806458      19.45048372  T       99      -0.00255101       0.00365853       0.01190466
In      11.07003506       2.12836158      19.44517297  T      100       0.00591070      -0.00846771       0.00031635
In       7.17270409       8.46593735      19.47024271  T      101       0.00596930       0.01123162       0.00323667
In      -5.56727793      11.29758968      19.69651877  T      102       0.01148848       0.00922531       0.00986060
In      -3.40657912       8.48736571      19.73504951  T      103      -0.00520581       0.00273137       0.01700809
In       0.29814119       2.12237515      19.73399858  T      104      -0.00863663      -0.01130375      -0.00735326
In       1.67193722       5.34093093      19.72932913  T      105       0.00843286      -0.00153299       0.02219398
In       1.84785895      11.16943235      19.55160130  T      106      -0.00006483      -0.00835747       0.00130694
In       5.23786626      11.67560696      19.70226077  T      107       0.00037963      -0.00504360       0.00134182
O        1.90878180       0.75571153      20.15416916  T      108      -0.00411725      -0.01459379       0.00004259
O        7.03358535      10.56908577      20.17162511  T      109       0.00483605      -0.00640297      -0.00063396
O       12.95729245       1.17695731      20.14048501  T      110      -0.00080676      -0.00352726       0.00048101
O        5.37325764       7.56412176      20.08120517  T      111       0.01046225       0.01404532       0.00593930
O       11.23391443       4.13521233      19.94597496  T      112      -0.00214137       0.00524122      -0.00124881
O        5.33946888       0.80561228      20.08327042  T      113       0.00917894       0.00269749      -0.00870639
O        0.49230922       3.90119444      20.99953699  T      114       0.00272074      -0.00511429       0.00455350
O       -3.62656220      10.73541641      20.64992226  T      115       0.00222473      -0.01014692      -0.00896943
O        3.70968611      10.29663432      20.29093545  T      116       0.01924744      -0.00824294       0.00195998
O       -1.39584062       7.67261426      19.51870647  T      117       0.00339106      -0.00260348      -0.00378438
O        0.09129337      10.54484902      20.66549424  T      118       0.00394711      -0.00799599      -0.00521767
O        1.88758425       7.25872627      20.72369338  T      119      -0.00201215       0.01156902      -0.00365329
P       -2.11196776       6.99364477      22.30686944  T        0      -0.00399646       0.00899369       0.00707489
O       -1.60853038       5.71146689      21.59890528  T        0       0.01497072      -0.00976956      -0.00292287
O       -1.00050513       8.05466940      22.47050931  T        0       0.00307286       0.00168681      -0.01174724
O       -3.42666016       7.57004338      21.69120703  T        0      -0.00333917      -0.00126699       0.00015672
C       -2.59023738       6.50060837      23.98751836  T        0       0.00322349       0.00922609      -0.00181906
H       -3.36887169       5.73328920      23.92366802  T        0      -0.00235651      -0.00341515       0.00580297
H       -1.71167153       6.10272073      24.50578234  T        0      -0.00741532       0.00165369       0.00675013
H       -2.97159385       7.38065752      24.51451670  T        0      -0.00589993      -0.00251165       0.00281038
H       -3.58579864      10.86329509      21.61468776  T        0      -0.00058975      -0.00122514       0.02063870
H       -0.25396386       4.31695129      21.49193328  T        0       0.00338972      -0.00482628       0.00325137
