130
Lattice="14.567458257780915 0.0 0.0 -7.283729128890462 12.615788919807672 0.0 0.0 0.0 33.04905420593702" Properties=species:S:1:pos:R:3:move_mask:L:1:spacegroup_kinds:I:1:forces:R:3 spacegroup="P 1" unit_cell=conventional occupancy="_JSON {\"0\": {\"O\": 1.0}, \"1\": {\"O\": 1.0}, \"2\": {\"O\": 1.0}, \"3\": {\"O\": 1.0}, \"4\": {\"O\": 1.0}, \"5\": {\"O\": 1.0}, \"6\": {\"O\": 1.0}, \"7\": {\"O\": 1.0}, \"8\": {\"O\": 1.0}, \"9\": {\"O\": 1.0}, \"10\": {\"O\": 1.0}, \"11\": {\"O\": 1.0}, \"12\": {\"In\": 1.0}, \"13\": {\"In\": 1.0}, \"14\": {\"In\": 1.0}, \"15\": {\"In\": 1.0}, \"16\": {\"In\": 1.0}, \"17\": {\"In\": 1.0}, \"18\": {\"In\": 1.0}, \"19\": {\"In\": 1.0}, \"20\": {\"In\": 1.0}, \"21\": {\"In\": 1.0}, \"22\": {\"In\": 1.0}, \"23\": {\"In\": 1.0}, \"24\": {\"In\": 1.0}, \"25\": {\"In\": 1.0}, \"26\": {\"In\": 1.0}, \"27\": {\"In\": 1.0}, \"28\": {\"O\": 1.0}, \"29\": {\"O\": 1.0}, \"30\": {\"O\": 1.0}, \"31\": {\"O\": 1.0}, \"32\": {\"O\": 1.0}, \"33\": {\"O\": 1.0}, \"34\": {\"O\": 1.0}, \"35\": {\"O\": 1.0}, \"36\": {\"O\": 1.0}, \"37\": {\"O\": 1.0}, \"38\": {\"O\": 1.0}, \"39\": {\"O\": 1.0}, \"40\": {\"O\": 1.0}, \"41\": {\"O\": 1.0}, \"42\": {\"O\": 1.0}, \"43\": {\"O\": 1.0}, \"44\": {\"O\": 1.0}, \"45\": {\"O\": 1.0}, \"46\": {\"O\": 1.0}, \"47\": {\"O\": 1.0}, \"48\": {\"O\": 1.0}, \"49\": {\"O\": 1.0}, \"50\": {\"O\": 1.0}, \"51\": {\"O\": 1.0}, \"52\": {\"In\": 1.0}, \"53\": {\"In\": 1.0}, \"54\": {\"In\": 1.0}, \"55\": {\"In\": 1.0}, \"56\": {\"In\": 1.0}, \"57\": {\"In\": 1.0}, \"58\": {\"In\": 1.0}, \"59\": {\"In\": 1.0}, \"60\": {\"In\": 1.0}, \"61\": {\"In\": 1.0}, \"62\": {\"In\": 1.0}, \"63\": {\"In\": 1.0}, \"64\": {\"In\": 1.0}, \"65\": {\"In\": 1.0}, \"66\": {\"In\": 1.0}, \"67\": {\"In\": 1.0}, \"68\": {\"O\": 1.0}, \"69\": {\"O\": 1.0}, \"70\": {\"O\": 1.0}, \"71\": {\"O\": 1.0}, \"72\": {\"O\": 1.0}, \"73\": {\"O\": 1.0}, \"74\": {\"O\": 1.0}, \"75\": {\"O\": 1.0}, \"76\": {\"O\": 1.0}, \"77\": {\"O\": 1.0}, \"78\": {\"O\": 1.0}, \"79\": {\"O\": 1.0}, \"80\": {\"O\": 1.0}, \"81\": {\"O\": 1.0}, \"82\": {\"O\": 1.0}, \"83\": {\"O\": 1.0}, \"84\": {\"O\": 1.0}, \"85\": {\"O\": 1.0}, \"86\": {\"O\": 1.0}, \"87\": {\"O\": 1.0}, \"88\": {\"O\": 1.0}, \"89\": {\"O\": 1.0}, \"90\": {\"O\": 1.0}, \"91\": {\"O\": 1.0}, \"92\": {\"In\": 1.0}, \"93\": {\"In\": 1.0}, \"94\": {\"In\": 1.0}, \"95\": {\"In\": 1.0}, \"96\": {\"In\": 1.0}, \"97\": {\"In\": 1.0}, \"98\": {\"In\": 1.0}, \"99\": {\"In\": 1.0}, \"100\": {\"In\": 1.0}, \"101\": {\"In\": 1.0}, \"102\": {\"In\": 1.0}, \"103\": {\"In\": 1.0}, \"104\": {\"In\": 1.0}, \"105\": {\"In\": 1.0}, \"106\": {\"In\": 1.0}, \"107\": {\"In\": 1.0}, \"108\": {\"O\": 1.0}, \"109\": {\"O\": 1.0}, \"110\": {\"O\": 1.0}, \"111\": {\"O\": 1.0}, \"112\": {\"O\": 1.0}, \"113\": {\"O\": 1.0}, \"114\": {\"O\": 1.0}, \"115\": {\"O\": 1.0}, \"116\": {\"O\": 1.0}, \"117\": {\"O\": 1.0}, \"118\": {\"O\": 1.0}, \"119\": {\"O\": 1.0}}" energy=-716.4052124023438 free_energy=-716.4052124023438 stress="0.006313042715191841 0.00016615664935670793 -2.1895099052926525e-05 0.00016615664935670793 0.006947782821953297 1.96336204680847e-05 -2.1895099052926525e-05 1.96336204680847e-05 0.0001049406491802074" pbc="T T T"
O        5.56112551       5.29730098      12.44442493  F        0       0.00070272       0.01130596       0.01314914
O        7.19929797       2.16742567      12.44442488  F        1       0.00860516      -0.00831857       0.01571333
O        9.09076378       5.15106294      12.44442506  F        2       0.01324192       0.00699685       0.02161121
O        3.56236441       2.32744963      12.81467041  F        3       0.01059300      -0.00123576      -0.01412868
O       10.77064547       1.92137361      12.81467059  F        4       0.00008728       0.01202124      -0.00053257
O        7.51817736       8.36696557      12.81467060  F        5       0.00129378      -0.01269478      -0.00084651
O       -3.86713652       8.43746206      12.95843886  F        6       0.02604046      -0.02436475       0.03958744
O        1.91024068       5.04801920      12.95843918  F        7      -0.01585522       0.03671145       0.02451187
O        1.95689587      11.74609578      12.95843921  F        8      -0.02011408      -0.01975989       0.02230805
O       -5.62751792      11.43742505      12.90107995  F        9       0.02096733      -0.00315847      -0.00538468
O        0.19238766       2.02350350      12.90107932  F       10      -0.04484144       0.02658177      -0.00728941
O        5.43512990      11.77064967      12.90107909  F       11      -0.00722235      -0.02547438       0.00050074
In       2.02827288       0.93415595      13.34696164  F       12      -0.01263363       0.01610207       0.11618704
In       5.45297263       1.43044201      13.46548669  F       13      -0.02204944       0.01543319      -0.02244806
In       5.79604177       7.17815473      13.46548635  F       14      -0.00843613       0.00550908      -0.04704273
In       7.07859496      10.39217548      13.34696140  F       15       0.00805999       0.01043233       0.04911448
In      10.60217256       4.00719198      13.46548647  F       16      -0.01357311      -0.02366690      -0.06400655
In      12.74431985       1.28945811      13.34696112  F       17       0.00424104      -0.02095976       0.03460909
In      -3.76992867      10.45841758      13.58493911  F       18      -0.03002317       0.02833472      -0.00512084
In       0.11143913       4.12172609      13.58493797  F       19       0.02682512      -0.03547460      -0.00465493
In       7.28372934       4.20526284      13.28077194  F       20      -0.02107582      -0.01250659      -0.02055432
In       3.65848992      10.65143468      13.58493907  F       21       0.01957391       0.01329664      -0.01228222
In      -2.12514371       7.57248039      13.82744761  F       22      -0.03491782       0.02127443      -0.13202348
In       1.78834112       6.98912009      13.82744861  F       23       0.03039143      -0.04453775      -0.08441354
In       3.89762555       4.37439996      13.55369945  F       24       0.01027145      -0.03061080       0.00238432
In       0.33680320      10.66997741      13.82744770  F       25       0.03457133       0.03330190      -0.07355762
In       8.83030441       1.18824328      13.55369950  F       26       0.00926959       0.00969831      -0.01269811
In       9.12325787       7.05314622      13.55369981  F       27      -0.03931453      -0.00289592      -0.08681618
O        1.94314284       9.09920259      13.79983277  F       28      -0.01972369       0.00358474       0.04418269
O       -0.37515974       6.38337672      13.79983300  F       29      -0.00620767       0.01248989       0.06507427
O       -1.56798334       9.74899853      13.79983313  F       30       0.00110906      -0.03013015       0.05216646
O       -1.90665604       3.49451490      14.07374983  F       31      -0.02056182       0.03849924       0.05291256
O       -3.30406258      12.51974383      14.07375025  F       32       0.04309657      -0.03059652       0.00574914
O        5.21071859       9.21731872      14.07374980  F       33      -0.01786524      -0.02276769       0.00135088
O        6.95268262       0.11029125      14.35625235  F       34      -0.00807437      -0.02375896       0.04627382
O        3.90290295       6.53944318      14.35625252  F       35      -0.01774324       0.02186674       0.03046416
O       10.99560128       5.96605484      14.35625280  F       36       0.02426857       0.01179719       0.10122080
O        5.60077915       3.29585311      14.56420047  F       37       0.02259587       0.03315076       0.00084740
O        8.91277589       3.20249084      14.56420075  F       38       0.00171043       0.00546384       0.03970379
O        7.33763173       6.11744518      14.56420087  F       39       0.04418030       0.00901351       0.05304402
O        1.68336921       1.02548187      15.48953070  F       40      -0.01561335       0.01861472      -0.14849858
O       12.83768043       0.94510034      15.48953027  F       41      -0.07327614       0.02391104      -0.02033815
O        7.33013789      10.64520717      15.48953039  F       42      -0.09253167      -0.10076816      -0.07945578
O       -3.87048772      10.25806959      15.75644575  F       43       0.16891995      -0.09315646      -0.00155197
O        0.33522381       4.13481358      15.75644581  F       44      -0.08375970       0.14840040      -0.00133297
O        3.53526358      10.83869431      15.75644572  F       45      -0.06588456      -0.05789529       0.02445604
O        9.24484356       0.74344663      15.94429150  F       46       0.03133693       0.04759967      -0.02612704
O        3.30515102       4.23779662      15.94429168  F       47      -0.04845825       0.13628148       0.03080449
O        9.30119327       7.63454631      15.94429132  F       48       0.02742948       0.07710737       0.18488428
O       -1.89390768       7.68105065      15.98554452  F       49       0.08654030      -0.03178415       0.24441811
O        1.57869822       7.13509120      15.98554413  F       50      -0.12476459      -0.02353284       0.16649963
O        0.31520971      10.41543579      15.98554439  F       51      -0.10186631      -0.09912533       0.12754887
In      -1.57901381       3.03754313      16.29163881  F       52       0.17625739      -0.28438750      -0.04134229
In      -3.86363272      12.46448245      16.29163869  F       53      -0.32305127       0.28526309       0.30105987
In      -0.30746998       6.17668715      16.39885574  F       54       0.17472261      -0.07067909      -0.23986027
In      -1.78082649       9.79372205      16.39885556  F       55      -0.12553312       0.01908483      -0.24351493
In       2.08829635       9.26116873      16.39885555  F       56       0.04509322       0.00922246      -0.07947925
In       5.44264624       9.72955081      16.29163837  F       57       0.03231980       0.13122228      -0.07855822
In      14.56745775       0.00000023      16.52452729  F       58       0.25491056       0.06111327       0.17874357
In       7.28372884       0.00000046      16.52452727  F       59       0.13775285       0.11559122      -0.32974559
In       3.64186448       6.30789445      16.52452688  F       60       0.07718007      -0.06478523      -0.19639976
In      -3.64186467       6.30789479      16.52452729  F       61      -0.16828656       0.02503906      -0.39053500
In       9.06455585       2.82206686      16.65019864  F       62      -0.03326243      -0.08922631      -0.22493388
In       1.84108280       2.88623741      16.75741682  F       63       0.06185630      -0.31896693       0.30970928
In       5.19543306       3.35462016      16.65019954  F       64      -0.19680464      -0.20745698       0.01541653
In      11.14736129       0.15130547      16.75741597  F       65       0.03669832      -0.05168231      -0.12639701
In       7.59119877       6.43910216      16.65019924  F       66      -0.06882805      -0.03044422      -0.12110390
In       8.86274257       9.57824538      16.75741545  F       67      -0.01009886       0.44797570       0.01180109
O        9.17763668       4.93473784      17.06350958  F       68       0.03609852      -0.01065537       0.09239117
O        6.96851909       2.20035367      17.06350993  F       69       0.16062783      -0.00480685       0.02351458
O        5.70503103       5.48069763      17.06350990  F       70       0.07263491       0.02689936       0.05339866
O       -2.01746347       4.98124236      17.10476289  F       71      -0.07360184       0.14445366       0.22579253
O       -1.96111486      11.87234229      17.10476307  F       72       0.20415655      -0.17436084       0.09360944
O        3.97857827       8.37799246      17.10476382  F       73      -0.01120734       0.07136910       0.07718743
O        6.94850543       8.48097521      17.29260816  F       74       0.26422876      -0.01384381       0.26097924
O       11.15421650       2.35771879      17.29260829  F       75      -0.07689917       0.08749449      -0.03007641
O        3.74846506       1.77709453      17.29260778  F       76       0.18702477       0.47839516       0.15401918
O       -0.04640858       1.97058198      17.55952389  F       77      -0.35264027       0.36905637      -0.01382446
O       -5.55395094      11.67068958      17.55952349  F       78      -0.07105469      -1.03929138      -0.25796655
O        5.60035973      11.59030666      17.55952404  F       79      -0.13022080      -0.03695174      -0.13067356
O       -1.72064911       9.43336015      18.51318380  T       80       0.00753155       0.00709250      -0.01719770
O        1.65079670       9.26214367      18.48878766  T       81      -0.01408574      -0.00286610      -0.00122631
O       -0.07019439       6.41483176      18.52396874  T       82       0.00833385      -0.00159696       0.00880763
O        3.41219767       6.10817649      18.68853811  T       83       0.00893372       0.00890088       0.00682744
O       -3.74701209       6.66735829      18.67877151  T       84      -0.01236737      -0.00441915      -0.00033269
O        0.40631758      12.48240212      18.65246730  T       85       0.00028592       0.00447775      -0.00779372
O        9.23435981       9.20247620      19.10940143  T       86       0.00731787       0.01772451      -0.01086155
O        1.95381418       3.48952425      18.99123750  T       87       0.00568392      -0.00168091      -0.00185798
O       10.56411001       0.07600814      18.96365353  T       88       0.00674257      -0.00661997      -0.00085329
O        8.86329374       2.86363307      19.26691045  T       89       0.00348091       0.00663801       0.00335658
O        5.34584867       3.51718635      19.24435886  T       90      -0.00159851      -0.00996125      -0.00188470
O        7.67015643       6.25272052      19.24314111  T       91       0.01057595      -0.00207159      -0.00651172
In      -1.91558576       5.60702932      19.42514019  T       92      -0.00627407       0.00129376      -0.00937101
In      -1.43560035      11.45029230      19.40207073  T       93       0.02511986       0.00738630       0.01046319
In       6.96130960       1.95073001      19.21361600  T       94      -0.01064688       0.00442618      -0.00712121
In       3.41123081       8.24005981      19.48245993  T       95       0.00240195       0.00347526       0.00715505
In       5.51248065       5.62103213      19.22564073  T       96       0.00865903      -0.00483887       0.00690082
In       9.38160019       5.02608022      19.22402091  T       97      -0.00585891       0.00702981       0.00567126
In       0.01084600       8.39534216      19.79978935  T       98      -0.01230917       0.01361362       0.00927831
In       3.64671556       2.01576021      19.56415656  T       99       0.01389459       0.01170638      -0.00031088
In      11.03147703       2.14685746      19.44410176  T      100       0.00882027       0.01506545       0.00459504
In       7.16583380       8.49472528      19.47148456  T      101      -0.00646488      -0.00959156      -0.01418167
In      -5.58758977      11.38513055      19.81229323  T      102      -0.01051307       0.01295725      -0.00306547
In      -3.34165310       8.56532155      19.62192431  T      103      -0.00256187      -0.00941290      -0.00042386
In       0.23324665       2.11258048      19.75465782  T      104      -0.01517428      -0.00998090       0.00703388
In       1.57063958       5.46659257      19.58566625  T      105      -0.01086023       0.01888421       0.00599538
In       1.84861956      11.15160885      19.57479974  T      106       0.01161512      -0.00306497      -0.00320080
In       5.21420127      11.68080814      19.68146306  T      107       0.00942073       0.01391301      -0.00011817
O        1.88342112       0.81499582      19.45138138  T      108       0.00073873      -0.01730645      -0.00617886
O        7.00399331      10.56107302      20.11235245  T      109       0.01600170      -0.00383448       0.00648761
O       12.85703973       1.18809548      20.05778217  T      110       0.00225359       0.00302769       0.00074634
O        5.38012262       7.54902401      20.10852949  T      111      -0.00639805       0.01019922      -0.00722423
O       11.15915733       4.19733530      20.06399108  T      112       0.01583867      -0.00111452       0.00111604
O        5.39452755       0.81338640      19.98305150  T      113       0.01007633      -0.01436920       0.00310451
O       -0.33086557       4.26984472      20.40371101  T      114      -0.00227201       0.01137049       0.00114930
O       -3.40367987      10.70714746      20.40748418  T      115       0.00174114      -0.00844208      -0.00477880
O        3.70624274      10.26295520      20.23943204  T      116      -0.00315687       0.00646453       0.00958914
O       -1.81795886       7.45026980      20.61701218  T      117      -0.00981867       0.00637495       0.00367069
O        0.08698158      10.42815323      20.59585072  T      118      -0.01237038       0.00894094      -0.00430149
O        1.72217686       7.30037799      20.63344036  T      119      -0.00064310      -0.01005620      -0.01371473
P        2.02080736       1.12764986      22.21443587  T        0       0.01085622      -0.00049118      -0.00004441
O        0.68549670       1.83911764      21.87793616  T        0      -0.01548970       0.00674611      -0.00994682
O        2.04555104      -0.39537821      21.90468136  T        0       0.00137701      -0.01630962       0.00397982
O        3.23107063       1.95335902      21.70433545  T        0      -0.00925720      -0.00577146      -0.00313894
C        2.15353988       1.19889110      24.03207572  T        0      -0.00380340      -0.00655886      -0.00217870
H        2.07608824       2.24004460      24.36218660  T        0      -0.00851457       0.01019979      -0.00701746
H        1.34498804       0.60552224      24.47090135  T        0      -0.00769688       0.00074115       0.01077063
H        3.12147141       0.78670490      24.33754173  T        0       0.00308233      -0.00246876      -0.00222600
H       -0.42596859       4.17063525      21.37243531  T        0      -0.00433477       0.00879584      -0.00058991
H        3.82542227      -1.61327187      21.34288471  T        0       0.00207893      -0.00486502      -0.00243038
