130
Lattice="14.567458257780915 0.0 0.0 -7.283729128890462 12.615788919807672 0.0 0.0 0.0 33.04905420593702" Properties=species:S:1:pos:R:3:move_mask:L:1:spacegroup_kinds:I:1:forces:R:3 spacegroup="P 1" unit_cell=conventional occupancy="_JSON {\"0\": {\"O\": 1.0}, \"1\": {\"O\": 1.0}, \"2\": {\"O\": 1.0}, \"3\": {\"O\": 1.0}, \"4\": {\"O\": 1.0}, \"5\": {\"O\": 1.0}, \"6\": {\"O\": 1.0}, \"7\": {\"O\": 1.0}, \"8\": {\"O\": 1.0}, \"9\": {\"O\": 1.0}, \"10\": {\"O\": 1.0}, \"11\": {\"O\": 1.0}, \"12\": {\"In\": 1.0}, \"13\": {\"In\": 1.0}, \"14\": {\"In\": 1.0}, \"15\": {\"In\": 1.0}, \"16\": {\"In\": 1.0}, \"17\": {\"In\": 1.0}, \"18\": {\"In\": 1.0}, \"19\": {\"In\": 1.0}, \"20\": {\"In\": 1.0}, \"21\": {\"In\": 1.0}, \"22\": {\"In\": 1.0}, \"23\": {\"In\": 1.0}, \"24\": {\"In\": 1.0}, \"25\": {\"In\": 1.0}, \"26\": {\"In\": 1.0}, \"27\": {\"In\": 1.0}, \"28\": {\"O\": 1.0}, \"29\": {\"O\": 1.0}, \"30\": {\"O\": 1.0}, \"31\": {\"O\": 1.0}, \"32\": {\"O\": 1.0}, \"33\": {\"O\": 1.0}, \"34\": {\"O\": 1.0}, \"35\": {\"O\": 1.0}, \"36\": {\"O\": 1.0}, \"37\": {\"O\": 1.0}, \"38\": {\"O\": 1.0}, \"39\": {\"O\": 1.0}, \"40\": {\"O\": 1.0}, \"41\": {\"O\": 1.0}, \"42\": {\"O\": 1.0}, \"43\": {\"O\": 1.0}, \"44\": {\"O\": 1.0}, \"45\": {\"O\": 1.0}, \"46\": {\"O\": 1.0}, \"47\": {\"O\": 1.0}, \"48\": {\"O\": 1.0}, \"49\": {\"O\": 1.0}, \"50\": {\"O\": 1.0}, \"51\": {\"O\": 1.0}, \"52\": {\"In\": 1.0}, \"53\": {\"In\": 1.0}, \"54\": {\"In\": 1.0}, \"55\": {\"In\": 1.0}, \"56\": {\"In\": 1.0}, \"57\": {\"In\": 1.0}, \"58\": {\"In\": 1.0}, \"59\": {\"In\": 1.0}, \"60\": {\"In\": 1.0}, \"61\": {\"In\": 1.0}, \"62\": {\"In\": 1.0}, \"63\": {\"In\": 1.0}, \"64\": {\"In\": 1.0}, \"65\": {\"In\": 1.0}, \"66\": {\"In\": 1.0}, \"67\": {\"In\": 1.0}, \"68\": {\"O\": 1.0}, \"69\": {\"O\": 1.0}, \"70\": {\"O\": 1.0}, \"71\": {\"O\": 1.0}, \"72\": {\"O\": 1.0}, \"73\": {\"O\": 1.0}, \"74\": {\"O\": 1.0}, \"75\": {\"O\": 1.0}, \"76\": {\"O\": 1.0}, \"77\": {\"O\": 1.0}, \"78\": {\"O\": 1.0}, \"79\": {\"O\": 1.0}, \"80\": {\"O\": 1.0}, \"81\": {\"O\": 1.0}, \"82\": {\"O\": 1.0}, \"83\": {\"O\": 1.0}, \"84\": {\"O\": 1.0}, \"85\": {\"O\": 1.0}, \"86\": {\"O\": 1.0}, \"87\": {\"O\": 1.0}, \"88\": {\"O\": 1.0}, \"89\": {\"O\": 1.0}, \"90\": {\"O\": 1.0}, \"91\": {\"O\": 1.0}, \"92\": {\"In\": 1.0}, \"93\": {\"In\": 1.0}, \"94\": {\"In\": 1.0}, \"95\": {\"In\": 1.0}, \"96\": {\"In\": 1.0}, \"97\": {\"In\": 1.0}, \"98\": {\"In\": 1.0}, \"99\": {\"In\": 1.0}, \"100\": {\"In\": 1.0}, \"101\": {\"In\": 1.0}, \"102\": {\"In\": 1.0}, \"103\": {\"In\": 1.0}, \"104\": {\"In\": 1.0}, \"105\": {\"In\": 1.0}, \"106\": {\"In\": 1.0}, \"107\": {\"In\": 1.0}, \"108\": {\"O\": 1.0}, \"109\": {\"O\": 1.0}, \"110\": {\"O\": 1.0}, \"111\": {\"O\": 1.0}, \"112\": {\"O\": 1.0}, \"113\": {\"O\": 1.0}, \"114\": {\"O\": 1.0}, \"115\": {\"O\": 1.0}, \"116\": {\"O\": 1.0}, \"117\": {\"O\": 1.0}, \"118\": {\"O\": 1.0}, \"119\": {\"O\": 1.0}}" energy=-717.597412109375 free_energy=-717.597412109375 stress="0.0061835236847400665 5.335747482604347e-05 -1.097619860956911e-05 5.335747482604347e-05 0.00698437076061964 -4.9064892664318904e-05 -1.097619860956911e-05 -4.9064892664318904e-05 5.193980177864432e-05" pbc="T T T"
O        5.56112551       5.29730098      12.44442493  F        0      -0.01090170      -0.00799724       0.00370395
O        7.19929797       2.16742567      12.44442488  F        1      -0.00023981      -0.01653624       0.01545656
O        9.09076378       5.15106294      12.44442506  F        2       0.02441159      -0.00280271       0.01197791
O        3.56236441       2.32744963      12.81467041  F        3       0.00379398      -0.00831974      -0.00283039
O       10.77064547       1.92137361      12.81467059  F        4       0.00999133       0.01126850       0.00019687
O        7.51817736       8.36696557      12.81467060  F        5      -0.00148211       0.00018528      -0.02359962
O       -3.86713652       8.43746206      12.95843886  F        6       0.04494487      -0.01246621       0.02525133
O        1.91024068       5.04801920      12.95843918  F        7      -0.02721497       0.01920471       0.02389151
O        1.95689587      11.74609578      12.95843921  F        8      -0.03210697      -0.01108432       0.02430040
O       -5.62751792      11.43742505      12.90107995  F        9       0.04026695       0.02802911      -0.00522852
O        0.19238766       2.02350350      12.90107932  F       10      -0.02958088       0.02636024       0.01123995
O        5.43512990      11.77064967      12.90107909  F       11      -0.00733930       0.00075804      -0.00791246
In       2.02827288       0.93415595      13.34696164  F       12      -0.01060218       0.00239884       0.02839312
In       5.45297263       1.43044201      13.46548669  F       13      -0.00484264       0.02923077      -0.05196257
In       5.79604177       7.17815473      13.46548635  F       14       0.01121802       0.01468793       0.01091118
In       7.07859496      10.39217548      13.34696140  F       15       0.00323834      -0.01664747       0.10396459
In      10.60217256       4.00719198      13.46548647  F       16      -0.03671227      -0.00785907      -0.05153994
In      12.74431985       1.28945811      13.34696112  F       17      -0.00453059      -0.03071205       0.01655506
In      -3.76992867      10.45841758      13.58493911  F       18      -0.04333442      -0.00546920       0.00491036
In       0.11143913       4.12172609      13.58493797  F       19       0.02121086      -0.02073004      -0.06775992
In       7.28372934       4.20526284      13.28077194  F       20      -0.00251734       0.03424772      -0.00193299
In       3.65848992      10.65143468      13.58493907  F       21       0.03877699      -0.01110284       0.01796548
In      -2.12514371       7.57248039      13.82744761  F       22      -0.05818626       0.01751358      -0.09138849
In       1.78834112       6.98912009      13.82744861  F       23       0.04923781      -0.02812836      -0.04266925
In       3.89762555       4.37439996      13.55369945  F       24       0.01783103       0.00418860       0.00009343
In       0.33680320      10.66997741      13.82744770  F       25       0.04663265       0.01966709      -0.10511360
In       8.83030441       1.18824328      13.55369950  F       26       0.01840248       0.02634186      -0.02491330
In       9.12325787       7.05314622      13.55369981  F       27      -0.06153245       0.00959859       0.01189325
O        1.94314284       9.09920259      13.79983277  F       28      -0.03829932       0.01426715       0.02569699
O       -0.37515974       6.38337672      13.79983300  F       29      -0.00930601      -0.00978309       0.06498376
O       -1.56798334       9.74899853      13.79983313  F       30       0.00626135      -0.01127590       0.06227362
O       -1.90665604       3.49451490      14.07374983  F       31      -0.00217336       0.04406947       0.06852666
O       -3.30406258      12.51974383      14.07375025  F       32       0.04389673       0.00087592       0.05298445
O        5.21071859       9.21731872      14.07374980  F       33      -0.04102087      -0.00192177      -0.05804962
O        6.95268262       0.11029125      14.35625235  F       34      -0.02703246      -0.02599379       0.08228388
O        3.90290295       6.53944318      14.35625252  F       35      -0.03231307      -0.00119126       0.00268421
O       10.99560128       5.96605484      14.35625280  F       36       0.07371461      -0.01870951       0.08532358
O        5.60077915       3.29585311      14.56420047  F       37      -0.00338938      -0.01480393       0.01314545
O        8.91277589       3.20249084      14.56420075  F       38      -0.00250018      -0.02789824       0.01525468
O        7.33763173       6.11744518      14.56420087  F       39       0.02962981      -0.04376865      -0.04538721
O        1.68336921       1.02548187      15.48953070  F       40       0.04446667       0.09008837      -0.03491265
O       12.83768043       0.94510034      15.48953027  F       41      -0.01514686       0.08861771      -0.02038734
O        7.33013789      10.64520717      15.48953039  F       42      -0.00412731       0.04723458      -0.12665455
O       -3.87048772      10.25806959      15.75644575  F       43       0.22893712       0.02407488      -0.04551394
O        0.33522381       4.13481358      15.75644581  F       44      -0.09099448       0.10788932       0.08471932
O        3.53526358      10.83869431      15.75644572  F       45      -0.10315710      -0.04773362      -0.00740054
O        9.24484356       0.74344663      15.94429150  F       46      -0.01514132       0.01016462       0.02407931
O        3.30515102       4.23779662      15.94429168  F       47      -0.04848936      -0.07908309      -0.02931193
O        9.30119327       7.63454631      15.94429132  F       48       0.22603686      -0.09979859      -0.00080830
O       -1.89390768       7.68105065      15.98554452  F       49       0.05335736       0.00716859       0.11417837
O        1.57869822       7.13509120      15.98554413  F       50      -0.13624620       0.00994168       0.07771821
O        0.31520971      10.41543579      15.98554439  F       51      -0.19790502      -0.04678050       0.17596959
In      -1.57901381       3.03754313      16.29163881  F       52       0.04923333      -0.27467006      -0.15921649
In      -3.86363272      12.46448245      16.29163869  F       53      -0.35750413      -0.02171679       0.00439013
In      -0.30746998       6.17668715      16.39885574  F       54       0.17637478       0.11462334      -0.32118461
In      -1.78082649       9.79372205      16.39885556  F       55      -0.19409606      -0.20556058      -0.01092629
In       2.08829635       9.26116873      16.39885555  F       56       0.20126942      -0.01637863      -0.26258644
In       5.44264624       9.72955081      16.29163837  F       57       0.27897102      -0.08645895       0.20550290
In      14.56745775       0.00000023      16.52452729  F       58       0.04598948      -0.20653693       0.06013044
In       7.28372884       0.00000046      16.52452727  F       59       0.22084911       0.18165089      -0.31536353
In       3.64186448       6.30789445      16.52452688  F       60       0.09251609      -0.02194241      -0.09522536
In      -3.64186467       6.30789479      16.52452729  F       61      -0.28977191       0.15950638      -0.13152483
In       9.06455585       2.82206686      16.65019864  F       62      -0.00297451       0.04363379      -0.11527170
In       1.84108280       2.88623741      16.75741682  F       63       0.02769291      -0.02779175      -0.04997769
In       5.19543306       3.35462016      16.65019954  F       64      -0.02437019       0.13690382      -0.08340722
In      11.14736129       0.15130547      16.75741597  F       65       0.11441024      -0.09926578      -0.13772795
In       7.59119877       6.43910216      16.65019924  F       66      -0.15783001       0.24510388       0.21144855
In       8.86274257       9.57824538      16.75741545  F       67      -0.25952488       0.05051275       0.19059084
O        9.17763668       4.93473784      17.06350958  F       68       0.31747979      -0.05375767       0.05649893
O        6.96851909       2.20035367      17.06350993  F       69       0.01439151      -0.05097885       0.04789897
O        5.70503103       5.48069763      17.06350990  F       70      -0.20808853      -0.14664134      -0.15223144
O       -2.01746347       4.98124236      17.10476289  F       71       0.04333390      -0.09922755       0.07185468
O       -1.96111486      11.87234229      17.10476307  F       72       0.21201116      -0.23635828       0.28862143
O        3.97857827       8.37799246      17.10476382  F       73      -0.18105847       0.01216622       0.05770452
O        6.94850543       8.48097521      17.29260816  F       74       0.15814668      -0.09358475       0.31144944
O       11.15421650       2.35771879      17.29260829  F       75       0.00387169       0.06690341       0.09713752
O        3.74846506       1.77709453      17.29260778  F       76       0.04385677      -0.06737968      -0.00694659
O       -0.04640858       1.97058198      17.55952389  F       77      -0.04065865       0.10086191      -0.04578958
O       -5.55395094      11.67068958      17.55952349  F       78       0.04805113       0.20934290       0.21050990
O        5.60035973      11.59030666      17.55952404  F       79      -0.32521203       0.24366498      -0.38033205
O       -1.71541698       9.36389759      18.54985450  T       80       0.00087327      -0.00310889       0.00616103
O        1.67843507       9.33644524      18.47060948  T       81       0.01097512       0.01402117      -0.00132042
O       -0.10509713       6.52428324      18.49094529  T       82      -0.00091469      -0.01223028       0.00181085
O        3.33668281       6.05968035      18.66590811  T       83       0.01178607      -0.00082207       0.00733067
O       -3.63706929       6.62879224      18.72468557  T       84       0.00445750      -0.00099024       0.02483771
O        0.36648586      12.51534060      18.67909224  T       85       0.00776359      -0.00241859       0.00742049
O        9.24782085       9.21904582      18.91341971  T       86      -0.01370421      -0.00415835      -0.00911323
O        2.06481881       3.39372087      18.98025360  T       87      -0.00357416       0.00292838       0.01126975
O       10.56898629       0.09373237      18.97369160  T       88       0.00345019      -0.00196198       0.00609182
O        8.85410141       2.86683449      19.25991695  T       89      -0.00204349       0.00523251       0.00220656
O        5.32091855       3.51038361      19.24283627  T       90       0.00536856       0.00471139       0.02078682
O        7.64884058       6.20108771      19.14655588  T       91      -0.01178926       0.00221074       0.01021826
In      -1.84023619       5.42195180      19.37258548  T       92       0.00962074       0.01337669      -0.00446118
In      -1.44405332      11.46528958      19.39960621  T       93       0.00393054      -0.01069631       0.00163054
In       6.94303688       1.98477485      19.22312673  T       94      -0.00006982       0.00713003       0.00360049
In       3.40867302       8.23763578      19.47558240  T       95       0.01216018       0.00138898      -0.01120899
In       5.48429398       5.62196164      19.20642200  T       96       0.00046124       0.00071752       0.00045907
In       9.38589082       5.04726369      19.23600290  T       97      -0.00411216       0.00263327      -0.00533199
In       0.07248077       8.43688039      19.68474933  T       98      -0.00068916       0.00326554      -0.00735951
In       3.61984926       1.95326058      19.45447566  T       99       0.00252872      -0.00244127      -0.00254603
In      11.03616311       2.14646668      19.46575262  T      100      -0.01241329       0.00725693       0.00990577
In       7.21284705       8.44638245      19.59524763  T      101      -0.00313202       0.01624554      -0.01286976
In      -5.62826772      11.32011584      19.78217923  T      102      -0.00782485      -0.01024567       0.00812662
In      -3.43099396       8.55871031      19.66759629  T      103       0.01935674      -0.00106157      -0.01400319
In       0.20026476       2.19724472      19.69180124  T      104       0.00612194       0.00316659       0.00426492
In       1.48776369       5.43011589      19.57647221  T      105      -0.00126876       0.00203760       0.00116710
In       1.84922698      11.19041620      19.60914101  T      106       0.00401416       0.00754793       0.00226155
In       5.19974649      11.68130244      19.68014489  T      107      -0.00219220       0.00256384      -0.01168053
O        1.84417406       0.84324014      20.12595161  T      108      -0.00209389       0.00067170       0.00678813
O        6.94686977      10.59106402      19.93134377  T      109      -0.00329494      -0.00475520      -0.00466475
O       12.88869782       1.19046046      20.14116724  T      110       0.00223724       0.00362022       0.00551295
O        5.33182090       7.53209920      20.04025777  T      111       0.01096234       0.00054658       0.00967649
O       11.12909988       4.17204024      20.09903867  T      112       0.00403524      -0.00302556      -0.00646496
O        5.34955256       0.86629490      20.06812404  T      113       0.00661048       0.00432128       0.00250351
O       -0.24243772       4.23761818      20.21205592  T      114      -0.00424181      -0.00087848       0.00144631
O       -3.37461554      10.86917074      20.20488571  T      115      -0.00248396       0.00479552      -0.00507939
O        3.67812729      10.27743600      20.27071386  T      116      -0.00130476       0.00010210       0.00087559
O       -1.67456447       7.36507451      20.63872385  T      117      -0.00445857      -0.00015923       0.00396991
O        0.07873813      10.43826886      20.59076984  T      118      -0.00795922       0.00253327       0.00694889
O        1.71137219       7.32284979      20.58118601  T      119      -0.00268033      -0.00192359       0.01193547
P       -5.37962801       8.99399941      22.15961057  T        0       0.00676432       0.00491723      -0.00281280
O       -5.41761572      10.50784745      21.87552042  T        0      -0.00343308      -0.00362468      -0.00194296
O       -6.56147140       8.19224419      21.59218044  T        0       0.02568787       0.01223016      -0.00782490
O       -4.02227675       8.36105661      21.72124290  T        0      -0.00078064       0.00517926       0.00586121
C       -5.42887894       8.77272485      23.96440138  T        0      -0.00992555      -0.01262093      -0.02266093
H       -4.55889276       9.26080826      24.41563211  T        0       0.00525399       0.00878897      -0.01299810
H       -6.35014942       9.21633928      24.35579546  T        0      -0.00566128       0.00230646      -0.00301138
H       -5.40748375       7.70006141      24.18225882  T        0       0.00041974      -0.01541995       0.00251339
H       -3.46855054      10.92505827      21.18188173  T        0       0.00118260       0.00624859      -0.00654292
H       -1.86644704       7.37975798      21.59511510  T        0       0.00077263       0.00374803       0.00503892
