130
Lattice="14.567458257780915 0.0 0.0 -7.283729128890462 12.615788919807672 0.0 0.0 0.0 33.04905420593702" Properties=species:S:1:pos:R:3:move_mask:L:1:spacegroup_kinds:I:1:forces:R:3 spacegroup="P 1" unit_cell=conventional occupancy="_JSON {\"0\": {\"O\": 1.0}, \"1\": {\"O\": 1.0}, \"2\": {\"O\": 1.0}, \"3\": {\"O\": 1.0}, \"4\": {\"O\": 1.0}, \"5\": {\"O\": 1.0}, \"6\": {\"O\": 1.0}, \"7\": {\"O\": 1.0}, \"8\": {\"O\": 1.0}, \"9\": {\"O\": 1.0}, \"10\": {\"O\": 1.0}, \"11\": {\"O\": 1.0}, \"12\": {\"In\": 1.0}, \"13\": {\"In\": 1.0}, \"14\": {\"In\": 1.0}, \"15\": {\"In\": 1.0}, \"16\": {\"In\": 1.0}, \"17\": {\"In\": 1.0}, \"18\": {\"In\": 1.0}, \"19\": {\"In\": 1.0}, \"20\": {\"In\": 1.0}, \"21\": {\"In\": 1.0}, \"22\": {\"In\": 1.0}, \"23\": {\"In\": 1.0}, \"24\": {\"In\": 1.0}, \"25\": {\"In\": 1.0}, \"26\": {\"In\": 1.0}, \"27\": {\"In\": 1.0}, \"28\": {\"O\": 1.0}, \"29\": {\"O\": 1.0}, \"30\": {\"O\": 1.0}, \"31\": {\"O\": 1.0}, \"32\": {\"O\": 1.0}, \"33\": {\"O\": 1.0}, \"34\": {\"O\": 1.0}, \"35\": {\"O\": 1.0}, \"36\": {\"O\": 1.0}, \"37\": {\"O\": 1.0}, \"38\": {\"O\": 1.0}, \"39\": {\"O\": 1.0}, \"40\": {\"O\": 1.0}, \"41\": {\"O\": 1.0}, \"42\": {\"O\": 1.0}, \"43\": {\"O\": 1.0}, \"44\": {\"O\": 1.0}, \"45\": {\"O\": 1.0}, \"46\": {\"O\": 1.0}, \"47\": {\"O\": 1.0}, \"48\": {\"O\": 1.0}, \"49\": {\"O\": 1.0}, \"50\": {\"O\": 1.0}, \"51\": {\"O\": 1.0}, \"52\": {\"In\": 1.0}, \"53\": {\"In\": 1.0}, \"54\": {\"In\": 1.0}, \"55\": {\"In\": 1.0}, \"56\": {\"In\": 1.0}, \"57\": {\"In\": 1.0}, \"58\": {\"In\": 1.0}, \"59\": {\"In\": 1.0}, \"60\": {\"In\": 1.0}, \"61\": {\"In\": 1.0}, \"62\": {\"In\": 1.0}, \"63\": {\"In\": 1.0}, \"64\": {\"In\": 1.0}, \"65\": {\"In\": 1.0}, \"66\": {\"In\": 1.0}, \"67\": {\"In\": 1.0}, \"68\": {\"O\": 1.0}, \"69\": {\"O\": 1.0}, \"70\": {\"O\": 1.0}, \"71\": {\"O\": 1.0}, \"72\": {\"O\": 1.0}, \"73\": {\"O\": 1.0}, \"74\": {\"O\": 1.0}, \"75\": {\"O\": 1.0}, \"76\": {\"O\": 1.0}, \"77\": {\"O\": 1.0}, \"78\": {\"O\": 1.0}, \"79\": {\"O\": 1.0}, \"80\": {\"O\": 1.0}, \"81\": {\"O\": 1.0}, \"82\": {\"O\": 1.0}, \"83\": {\"O\": 1.0}, \"84\": {\"O\": 1.0}, \"85\": {\"O\": 1.0}, \"86\": {\"O\": 1.0}, \"87\": {\"O\": 1.0}, \"88\": {\"O\": 1.0}, \"89\": {\"O\": 1.0}, \"90\": {\"O\": 1.0}, \"91\": {\"O\": 1.0}, \"92\": {\"In\": 1.0}, \"93\": {\"In\": 1.0}, \"94\": {\"In\": 1.0}, \"95\": {\"In\": 1.0}, \"96\": {\"In\": 1.0}, \"97\": {\"In\": 1.0}, \"98\": {\"In\": 1.0}, \"99\": {\"In\": 1.0}, \"100\": {\"In\": 1.0}, \"101\": {\"In\": 1.0}, \"102\": {\"In\": 1.0}, \"103\": {\"In\": 1.0}, \"104\": {\"In\": 1.0}, \"105\": {\"In\": 1.0}, \"106\": {\"In\": 1.0}, \"107\": {\"In\": 1.0}, \"108\": {\"O\": 1.0}, \"109\": {\"O\": 1.0}, \"110\": {\"O\": 1.0}, \"111\": {\"O\": 1.0}, \"112\": {\"O\": 1.0}, \"113\": {\"O\": 1.0}, \"114\": {\"O\": 1.0}, \"115\": {\"O\": 1.0}, \"116\": {\"O\": 1.0}, \"117\": {\"O\": 1.0}, \"118\": {\"O\": 1.0}, \"119\": {\"O\": 1.0}}" energy=-716.423583984375 free_energy=-716.423583984375 stress="0.006698972545564175 -5.002419857191853e-05 3.256331183365546e-05 -5.002419857191853e-05 0.006907793693244457 5.063354910816997e-05 3.256331183365546e-05 5.063354910816997e-05 3.705197377712466e-05" pbc="T T T"
O        5.56112551       5.29730098      12.44442493  F        0      -0.00150429       0.02977151      -0.00337613
O        7.19929797       2.16742567      12.44442488  F        1       0.01175109      -0.01206079      -0.00448775
O        9.09076378       5.15106294      12.44442506  F        2       0.01670921       0.01799677       0.00476730
O        3.56236441       2.32744963      12.81467041  F        3      -0.01713786      -0.01879089      -0.02854496
O       10.77064547       1.92137361      12.81467059  F        4       0.02170675      -0.00012684      -0.01182169
O        7.51817736       8.36696557      12.81467060  F        5      -0.00201624       0.01053739       0.00010163
O       -3.86713652       8.43746206      12.95843886  F        6       0.02319391      -0.00446485       0.03733966
O        1.91024068       5.04801920      12.95843918  F        7      -0.02651092       0.03865784       0.00908351
O        1.95689587      11.74609578      12.95843921  F        8      -0.00086504      -0.03808123       0.01913190
O       -5.62751792      11.43742505      12.90107995  F        9       0.00127164      -0.01388573       0.00635374
O        0.19238766       2.02350350      12.90107932  F       10      -0.03761362       0.01166972      -0.00833464
O        5.43512990      11.77064967      12.90107909  F       11       0.00342641      -0.02596943       0.01247776
In       2.02827288       0.93415595      13.34696164  F       12       0.01710913       0.02929422       0.07511371
In       5.45297263       1.43044201      13.46548669  F       13       0.00632791       0.04196425       0.03036158
In       5.79604177       7.17815473      13.46548635  F       14      -0.00589822      -0.02989893      -0.02896790
In       7.07859496      10.39217548      13.34696140  F       15       0.00190557      -0.00280946      -0.02212283
In      10.60217256       4.00719198      13.46548647  F       16      -0.03117843      -0.02458796      -0.02029404
In      12.74431985       1.28945811      13.34696112  F       17      -0.00900223       0.00762685       0.00244324
In      -3.76992867      10.45841758      13.58493911  F       18      -0.00817638       0.04858369      -0.06248355
In       0.11143913       4.12172609      13.58493797  F       19       0.01290526      -0.02665762      -0.00714014
In       7.28372934       4.20526284      13.28077194  F       20      -0.03399690      -0.04517256       0.03280349
In       3.65848992      10.65143468      13.58493907  F       21       0.00473941       0.01659145      -0.05492194
In      -2.12514371       7.57248039      13.82744761  F       22      -0.04222277      -0.00070180      -0.14015396
In       1.78834112       6.98912009      13.82744861  F       23       0.03363665      -0.05551341      -0.06015807
In       3.89762555       4.37439996      13.55369945  F       24       0.03299905      -0.05406693       0.06743482
In       0.33680320      10.66997741      13.82744770  F       25       0.02519365       0.07926695      -0.07626770
In       8.83030441       1.18824328      13.55369950  F       26      -0.01954439       0.02766073       0.01304542
In       9.12325787       7.05314622      13.55369981  F       27      -0.03450211      -0.03035258      -0.05706006
O        1.94314284       9.09920259      13.79983277  F       28      -0.01175324       0.01444024       0.05141959
O       -0.37515974       6.38337672      13.79983300  F       29      -0.00870866       0.02442619       0.05522686
O       -1.56798334       9.74899853      13.79983313  F       30      -0.00850940      -0.03558755       0.06401274
O       -1.90665604       3.49451490      14.07374983  F       31       0.00075632       0.01678717       0.00585917
O       -3.30406258      12.51974383      14.07375025  F       32       0.00242066      -0.07167679      -0.01314406
O        5.21071859       9.21731872      14.07374980  F       33      -0.00277448       0.00243300       0.03453350
O        6.95268262       0.11029125      14.35625235  F       34       0.01494816      -0.06925257       0.00159281
O        3.90290295       6.53944318      14.35625252  F       35      -0.01433222       0.04893851       0.00188246
O       10.99560128       5.96605484      14.35625280  F       36       0.03572494       0.04268268       0.06059391
O        5.60077915       3.29585311      14.56420047  F       37       0.00722910       0.05913039      -0.11545628
O        8.91277589       3.20249084      14.56420075  F       38       0.02930585       0.01009370      -0.04154044
O        7.33763173       6.11744518      14.56420087  F       39       0.04295358       0.03732670       0.00995207
O        1.68336921       1.02548187      15.48953070  F       40      -0.16018917      -0.14753577      -0.09066744
O       12.83768043       0.94510034      15.48953027  F       41      -0.01695236      -0.02499664       0.01331551
O        7.33013789      10.64520717      15.48953039  F       42       0.02324031      -0.05352229       0.06357281
O       -3.87048772      10.25806959      15.75644575  F       43       0.02230333      -0.06124598       0.11228745
O        0.33522381       4.13481358      15.75644581  F       44      -0.04382071       0.07691406       0.04607479
O        3.53526358      10.83869431      15.75644572  F       45      -0.06563941      -0.06591183       0.11340144
O        9.24484356       0.74344663      15.94429150  F       46       0.06474768      -0.09730414       0.01601496
O        3.30515102       4.23779662      15.94429168  F       47      -0.06749716       0.21658871      -0.06428887
O        9.30119327       7.63454631      15.94429132  F       48       0.03488684       0.09949845       0.11743285
O       -1.89390768       7.68105065      15.98554452  F       49       0.05342080       0.22083437       0.30968159
O        1.57869822       7.13509120      15.98554413  F       50      -0.06868073       0.09712450       0.11144486
O        0.31520971      10.41543579      15.98554439  F       51      -0.04813194      -0.18044081       0.13091581
In      -1.57901381       3.03754313      16.29163881  F       52      -0.00225377      -0.09827555      -0.05386808
In      -3.86363272      12.46448245      16.29163869  F       53       0.13081653       0.54700989       0.18416041
In      -0.30746998       6.17668715      16.39885574  F       54       0.06242536      -0.12219410      -0.20389248
In      -1.78082649       9.79372205      16.39885556  F       55      -0.03873018       0.14307669      -0.10644355
In       2.08829635       9.26116873      16.39885555  F       56      -0.00841818      -0.05227942      -0.08517188
In       5.44264624       9.72955081      16.29163837  F       57       0.00808202       0.03906601      -0.08568636
In      14.56745775       0.00000023      16.52452729  F       58       0.02301746       0.13380294      -0.15753958
In       7.28372884       0.00000046      16.52452727  F       59      -0.02912690       0.39118657       0.05293817
In       3.64186448       6.30789445      16.52452688  F       60       0.06885630      -0.20188847      -0.08974801
In      -3.64186467       6.30789479      16.52452729  F       61      -0.12045269      -0.10633311      -0.15129405
In       9.06455585       2.82206686      16.65019864  F       62      -0.24404357      -0.09481689       0.11180659
In       1.84108280       2.88623741      16.75741682  F       63       0.43069163      -0.24050896       0.13995205
In       5.19543306       3.35462016      16.65019954  F       64      -0.09138595      -0.42972508       0.38021475
In      11.14736129       0.15130547      16.75741597  F       65       0.02908438       0.14064187      -0.23662731
In       7.59119877       6.43910216      16.65019924  F       66      -0.06058382      -0.17641185      -0.10708767
In       8.86274257       9.57824538      16.75741545  F       67       0.02094883       0.02601519      -0.19984116
O        9.17763668       4.93473784      17.06350958  F       68       0.07406796       0.28410903      -0.08754302
O        6.96851909       2.20035367      17.06350993  F       69       0.34613436      -0.20382652       0.20671158
O        5.70503103       5.48069763      17.06350990  F       70       0.06164125       0.24767399      -0.05347254
O       -2.01746347       4.98124236      17.10476289  F       71       0.00722453       0.05741085       0.12526019
O       -1.96111486      11.87234229      17.10476307  F       72       0.19920880      -0.73015678      -0.45815486
O        3.97857827       8.37799246      17.10476382  F       73      -0.16229375       0.12922016       0.18021393
O        6.94850543       8.48097521      17.29260816  F       74       0.16136834       0.05353963       0.20466211
O       11.15421650       2.35771879      17.29260829  F       75       0.21760070       0.01020494      -0.08016876
O        3.74846506       1.77709453      17.29260778  F       76      -0.60968536       0.33153605      -0.23135948
O       -0.04640858       1.97058198      17.55952389  F       77      -0.07911305       0.04994426      -0.01541518
O       -5.55395094      11.67068958      17.55952349  F       78      -0.05190669      -0.21172646       0.04132795
O        5.60035973      11.59030666      17.55952404  F       79       0.05082724      -0.04480278       0.01683503
O       -1.67295164       9.47875843      18.58266763  T       80       0.00513405       0.00616859      -0.00018524
O        1.61924558       9.29870086      18.51185950  T       81      -0.01090065      -0.00881624       0.00410581
O       -0.05793407       6.47490111      18.48844560  T       82      -0.00810516       0.01236542       0.00745100
O        3.36480790       6.08700519      18.69144973  T       83      -0.00869696       0.01751503       0.00583674
O       -3.68940056       6.64562382      18.69543686  T       84      -0.01790452       0.00095326      -0.00227339
O        0.41207056      12.37168123      18.68656282  T       85      -0.01157653       0.00242901      -0.00318894
O        9.25002142       9.17637133      19.01051223  T       86      -0.00047830      -0.01104325       0.00472596
O        2.05100487       3.39603558      19.00804740  T       87       0.00164422      -0.00694308       0.01227956
O       10.63556397       0.10115418      18.96755728  T       88      -0.01388261      -0.00273584       0.00217149
O        8.90825172       2.87202321      19.12266865  T       89       0.01161286      -0.00714684      -0.00593168
O        5.34451191       3.55064783      19.18932602  T       90       0.00929280       0.01297498       0.01022029
O        7.68271921       6.25612144      19.25192379  T       91       0.00091076       0.00834078      -0.00042260
In      -1.84539538       5.51745516      19.48686726  T       92       0.01178762       0.01175419      -0.00749093
In      -1.47864631      11.48285057      19.39992921  T       93      -0.00030098       0.01226875       0.00864359
In       6.96810658       2.01328680      19.29769352  T       94      -0.02111191      -0.00235175       0.01402897
In       3.39728932       8.20434373      19.48911533  T       95      -0.00610162      -0.01513282       0.00353595
In       5.49635268       5.61833962      19.22415596  T       96      -0.00869344      -0.01742593      -0.01237308
In       9.40500127       5.02829685      19.21305109  T       97       0.01119220      -0.00978107       0.00947683
In       0.01806280       8.28416124      19.74365881  T       98      -0.00802885       0.00739229       0.00329437
In       3.60197977       2.03340091      19.60848039  T       99      -0.00449693      -0.01158018      -0.00099435
In      11.04851604       2.17852116      19.45472401  T      100       0.00673661       0.00090066       0.00696959
In       7.18819453       8.45948568      19.46138959  T      101      -0.00979333      -0.01343727      -0.00658266
In      -5.59959899      11.36971670      19.69032058  T      102      -0.00258853       0.01093621       0.00635132
In      -3.33587160       8.54341409      19.63382710  T      103      -0.00741634       0.02120143       0.00117353
In       0.17364114       2.22673423      19.70295311  T      104       0.01636978       0.00160362      -0.01284988
In       1.50508172       5.39873254      19.61073392  T      105      -0.00345973      -0.01076755      -0.00683102
In       1.94530919      11.18951545      19.51753647  T      106       0.00406016      -0.00700800      -0.00601581
In       5.26287276      11.69378506      19.69220995  T      107       0.00421632      -0.00246156      -0.00480330
O        1.75296945       0.82271542      20.11266707  T      108      -0.02076985      -0.00787148       0.01107132
O        7.04572359      10.54192539      20.15271734  T      109      -0.01352669      -0.00201847       0.00312448
O       12.88588035       1.18427637      20.16164512  T      110       0.00611890      -0.00268200       0.00447309
O        5.37732685       7.54671351      20.09243434  T      111      -0.01245306       0.02162819       0.00142816
O       11.13809620       4.19242212      20.12314349  T      112      -0.00208698       0.00391568       0.00622970
O        5.23714949       0.81252897      19.34993559  T      113       0.00316148      -0.00724828       0.01029418
O       -0.25192724       4.25326574      20.25285811  T      114      -0.00382157      -0.00557223       0.00780904
O       -3.62003520      10.67859589      20.45298269  T      115      -0.00023864      -0.01086652      -0.00984663
O        3.73658118      10.25840606      20.21536816  T      116      -0.00976536       0.00213014      -0.00258261
O       -1.79754004       7.46066513      20.63335357  T      117      -0.01114509       0.00170597      -0.00875944
O        0.20127399      10.35774857      20.68077544  T      118      -0.00397985       0.00350876      -0.00319052
O        1.72607896       7.28814219      20.63161764  T      119      -0.00062745       0.00718161      -0.00491238
P        5.61710037       0.99500378      21.98809154  T        0      -0.00125468      -0.00803325      -0.00101805
O        4.32908059       1.80643863      21.69932508  T        0       0.00540084      -0.00701791      -0.00214295
O        5.54894744      -0.54426146      21.72638511  T        0       0.00481898       0.01074934      -0.00703846
O        6.92921838       1.62587475      21.43134049  T        0      -0.00252426      -0.00054288      -0.00362135
C        5.81660374       1.13967906      23.80219781  T        0      -0.00252180      -0.00604907      -0.00498736
H        5.96992013       2.19316267      24.05828933  T        0      -0.00356684       0.00286630       0.00007630
H        4.91676835       0.76454837      24.30085291  T        0      -0.00561772      -0.00239705      -0.00841296
H        6.68656164       0.55198714      24.11449799  T        0       0.00619648       0.00453176       0.00708297
H        4.07124542      -1.48754343      21.24569156  T        0      -0.00875538      -0.00323689       0.01074111
H        7.20298340      -1.94987803      21.56768024  T        0      -0.01411768      -0.00257254       0.00465077
