130
Lattice="14.567458257780915 0.0 0.0 -7.283729128890462 12.615788919807672 0.0 0.0 0.0 33.04905420593702" Properties=species:S:1:pos:R:3:move_mask:L:1:spacegroup_kinds:I:1:forces:R:3 spacegroup="P 1" unit_cell=conventional occupancy="_JSON {\"0\": {\"O\": 1.0}, \"1\": {\"O\": 1.0}, \"2\": {\"O\": 1.0}, \"3\": {\"O\": 1.0}, \"4\": {\"O\": 1.0}, \"5\": {\"O\": 1.0}, \"6\": {\"O\": 1.0}, \"7\": {\"O\": 1.0}, \"8\": {\"O\": 1.0}, \"9\": {\"O\": 1.0}, \"10\": {\"O\": 1.0}, \"11\": {\"O\": 1.0}, \"12\": {\"In\": 1.0}, \"13\": {\"In\": 1.0}, \"14\": {\"In\": 1.0}, \"15\": {\"In\": 1.0}, \"16\": {\"In\": 1.0}, \"17\": {\"In\": 1.0}, \"18\": {\"In\": 1.0}, \"19\": {\"In\": 1.0}, \"20\": {\"In\": 1.0}, \"21\": {\"In\": 1.0}, \"22\": {\"In\": 1.0}, \"23\": {\"In\": 1.0}, \"24\": {\"In\": 1.0}, \"25\": {\"In\": 1.0}, \"26\": {\"In\": 1.0}, \"27\": {\"In\": 1.0}, \"28\": {\"O\": 1.0}, \"29\": {\"O\": 1.0}, \"30\": {\"O\": 1.0}, \"31\": {\"O\": 1.0}, \"32\": {\"O\": 1.0}, \"33\": {\"O\": 1.0}, \"34\": {\"O\": 1.0}, \"35\": {\"O\": 1.0}, \"36\": {\"O\": 1.0}, \"37\": {\"O\": 1.0}, \"38\": {\"O\": 1.0}, \"39\": {\"O\": 1.0}, \"40\": {\"O\": 1.0}, \"41\": {\"O\": 1.0}, \"42\": {\"O\": 1.0}, \"43\": {\"O\": 1.0}, \"44\": {\"O\": 1.0}, \"45\": {\"O\": 1.0}, \"46\": {\"O\": 1.0}, \"47\": {\"O\": 1.0}, \"48\": {\"O\": 1.0}, \"49\": {\"O\": 1.0}, \"50\": {\"O\": 1.0}, \"51\": {\"O\": 1.0}, \"52\": {\"In\": 1.0}, \"53\": {\"In\": 1.0}, \"54\": {\"In\": 1.0}, \"55\": {\"In\": 1.0}, \"56\": {\"In\": 1.0}, \"57\": {\"In\": 1.0}, \"58\": {\"In\": 1.0}, \"59\": {\"In\": 1.0}, \"60\": {\"In\": 1.0}, \"61\": {\"In\": 1.0}, \"62\": {\"In\": 1.0}, \"63\": {\"In\": 1.0}, \"64\": {\"In\": 1.0}, \"65\": {\"In\": 1.0}, \"66\": {\"In\": 1.0}, \"67\": {\"In\": 1.0}, \"68\": {\"O\": 1.0}, \"69\": {\"O\": 1.0}, \"70\": {\"O\": 1.0}, \"71\": {\"O\": 1.0}, \"72\": {\"O\": 1.0}, \"73\": {\"O\": 1.0}, \"74\": {\"O\": 1.0}, \"75\": {\"O\": 1.0}, \"76\": {\"O\": 1.0}, \"77\": {\"O\": 1.0}, \"78\": {\"O\": 1.0}, \"79\": {\"O\": 1.0}, \"80\": {\"O\": 1.0}, \"81\": {\"O\": 1.0}, \"82\": {\"O\": 1.0}, \"83\": {\"O\": 1.0}, \"84\": {\"O\": 1.0}, \"85\": {\"O\": 1.0}, \"86\": {\"O\": 1.0}, \"87\": {\"O\": 1.0}, \"88\": {\"O\": 1.0}, \"89\": {\"O\": 1.0}, \"90\": {\"O\": 1.0}, \"91\": {\"O\": 1.0}, \"92\": {\"In\": 1.0}, \"93\": {\"In\": 1.0}, \"94\": {\"In\": 1.0}, \"95\": {\"In\": 1.0}, \"96\": {\"In\": 1.0}, \"97\": {\"In\": 1.0}, \"98\": {\"In\": 1.0}, \"99\": {\"In\": 1.0}, \"100\": {\"In\": 1.0}, \"101\": {\"In\": 1.0}, \"102\": {\"In\": 1.0}, \"103\": {\"In\": 1.0}, \"104\": {\"In\": 1.0}, \"105\": {\"In\": 1.0}, \"106\": {\"In\": 1.0}, \"107\": {\"In\": 1.0}, \"108\": {\"O\": 1.0}, \"109\": {\"O\": 1.0}, \"110\": {\"O\": 1.0}, \"111\": {\"O\": 1.0}, \"112\": {\"O\": 1.0}, \"113\": {\"O\": 1.0}, \"114\": {\"O\": 1.0}, \"115\": {\"O\": 1.0}, \"116\": {\"O\": 1.0}, \"117\": {\"O\": 1.0}, \"118\": {\"O\": 1.0}, \"119\": {\"O\": 1.0}}" energy=-715.559326171875 free_energy=-715.559326171875 stress="0.0054738386534154415 0.0005250175017863512 2.6498384613660164e-05 0.0005250175017863512 0.0057258871383965015 0.000107374886283651 2.6498384613660164e-05 0.000107374886283651 4.462059587240219e-05" pbc="T T T"
O        5.56112551       5.29730098      12.44442493  F        0      -0.00305539       0.00435923       0.01139307
O        7.19929797       2.16742567      12.44442488  F        1      -0.00204537      -0.00254431       0.01155186
O        9.09076378       5.15106294      12.44442506  F        2      -0.00461033       0.00011514       0.01350892
O        3.56236441       2.32744963      12.81467041  F        3       0.00699645       0.00133446      -0.00320190
O       10.77064547       1.92137361      12.81467059  F        4      -0.00649525      -0.00101733      -0.00009143
O        7.51817736       8.36696557      12.81467060  F        5      -0.00645814      -0.00195110       0.00447297
O       -3.86713652       8.43746206      12.95843886  F        6       0.01855488      -0.00180393       0.01882011
O        1.91024068       5.04801920      12.95843918  F        7       0.00844043       0.02856389       0.01759350
O        1.95689587      11.74609578      12.95843921  F        8      -0.01428977      -0.01824744       0.02480328
O       -5.62751792      11.43742505      12.90107995  F        9       0.01090478       0.00341289       0.01070082
O        0.19238766       2.02350350      12.90107932  F       10      -0.01760902       0.00294904      -0.00114876
O        5.43512990      11.77064967      12.90107909  F       11      -0.00070260      -0.02946103       0.01012045
In       2.02827288       0.93415595      13.34696164  F       12      -0.00060395       0.00929583       0.04407954
In       5.45297263       1.43044201      13.46548669  F       13      -0.00429199      -0.00626505      -0.03034660
In       5.79604177       7.17815473      13.46548635  F       14      -0.00206597      -0.00360133      -0.04645264
In       7.07859496      10.39217548      13.34696140  F       15       0.01058895      -0.00653388      -0.01483242
In      10.60217256       4.00719198      13.46548647  F       16       0.01835743       0.00630473      -0.02200150
In      12.74431985       1.28945811      13.34696112  F       17      -0.00378037       0.01270227       0.03508434
In      -3.76992867      10.45841758      13.58493911  F       18      -0.00632468       0.01016726      -0.03385535
In       0.11143913       4.12172609      13.58493797  F       19      -0.00006191      -0.01223712       0.01453334
In       7.28372934       4.20526284      13.28077194  F       20      -0.00023085      -0.00735837      -0.02241328
In       3.65848992      10.65143468      13.58493907  F       21       0.00749826       0.00318773      -0.05344562
In      -2.12514371       7.57248039      13.82744761  F       22      -0.03318177       0.01122174      -0.00101770
In       1.78834112       6.98912009      13.82744861  F       23       0.00130256      -0.04065906      -0.05600365
In       3.89762555       4.37439996      13.55369945  F       24       0.00404546      -0.01770758      -0.02822127
In       0.33680320      10.66997741      13.82744770  F       25       0.01194020       0.02402243      -0.05473024
In       8.83030441       1.18824328      13.55369950  F       26       0.00227302       0.01719468      -0.03125442
In       9.12325787       7.05314622      13.55369981  F       27      -0.00021818      -0.00785907      -0.04053494
O        1.94314284       9.09920259      13.79983277  F       28       0.00056268       0.01600122       0.03857544
O       -0.37515974       6.38337672      13.79983300  F       29       0.02375263       0.00567952       0.02281290
O       -1.56798334       9.74899853      13.79983313  F       30      -0.00267738       0.00421895       0.02187264
O       -1.90665604       3.49451490      14.07374983  F       31      -0.00033682       0.00533998      -0.00483991
O       -3.30406258      12.51974383      14.07375025  F       32       0.02041674      -0.01106659      -0.00127691
O        5.21071859       9.21731872      14.07374980  F       33      -0.01307395       0.00179645       0.03035022
O        6.95268262       0.11029125      14.35625235  F       34       0.00617191      -0.00526112       0.03153347
O        3.90290295       6.53944318      14.35625252  F       35       0.00766012       0.01268184       0.03103825
O       10.99560128       5.96605484      14.35625280  F       36      -0.01861781       0.00224382       0.02174820
O        5.60077915       3.29585311      14.56420047  F       37      -0.00369994       0.02653880       0.02811712
O        8.91277589       3.20249084      14.56420075  F       38      -0.02307081      -0.01199946       0.04293245
O        7.33763173       6.11744518      14.56420087  F       39       0.01494405      -0.00258338       0.04832768
O        1.68336921       1.02548187      15.48953070  F       40       0.06636463      -0.01909384      -0.03815882
O       12.83768043       0.94510034      15.48953027  F       41      -0.03126433      -0.10241371       0.01259896
O        7.33013789      10.64520717      15.48953039  F       42      -0.04047718      -0.00835153       0.06769089
O       -3.87048772      10.25806959      15.75644575  F       43       0.06142268      -0.02699292       0.08628793
O        0.33522381       4.13481358      15.75644581  F       44       0.04175556       0.10500216      -0.04069070
O        3.53526358      10.83869431      15.75644572  F       45       0.01109272       0.04482868       0.10780720
O        9.24484356       0.74344663      15.94429150  F       46       0.02370664      -0.07434928       0.09310432
O        3.30515102       4.23779662      15.94429168  F       47      -0.02429473       0.00911901       0.04173040
O        9.30119327       7.63454631      15.94429132  F       48       0.01265649      -0.04187727       0.08975869
O       -1.89390768       7.68105065      15.98554452  F       49      -0.03863060       0.12509304      -0.02089445
O        1.57869822       7.13509120      15.98554413  F       50      -0.01614806      -0.01100332       0.14031920
O        0.31520971      10.41543579      15.98554439  F       51      -0.05529761      -0.05299914       0.09603904
In      -1.57901381       3.03754313      16.29163881  F       52       0.03159767       0.07825576       0.38218582
In      -3.86363272      12.46448245      16.29163869  F       53      -0.05710495       0.08977646      -0.06028550
In      -0.30746998       6.17668715      16.39885574  F       54      -0.22820878      -0.02122039       0.10772812
In      -1.78082649       9.79372205      16.39885556  F       55       0.00878118      -0.05673452      -0.10016481
In       2.08829635       9.26116873      16.39885555  F       56       0.00242589       0.01915641      -0.23197295
In       5.44264624       9.72955081      16.29163837  F       57       0.03791610      -0.05932328      -0.19323891
In      14.56745775       0.00000023      16.52452729  F       58       0.12492012       0.26846299      -0.03615999
In       7.28372884       0.00000046      16.52452727  F       59       0.03295784       0.01998326      -0.10636214
In       3.64186448       6.30789445      16.52452688  F       60       0.05475857      -0.00520440      -0.35218132
In      -3.64186467       6.30789479      16.52452729  F       61       0.18871528      -0.03660990       0.01148214
In       9.06455585       2.82206686      16.65019864  F       62       0.16785263      -0.05225665      -0.11286624
In       1.84108280       2.88623741      16.75741682  F       63      -0.11901601      -0.06758793       0.19413924
In       5.19543306       3.35462016      16.65019954  F       64      -0.02212834      -0.04869996      -0.07898811
In      11.14736129       0.15130547      16.75741597  F       65       0.01633264       0.33929497       0.00558721
In       7.59119877       6.43910216      16.65019924  F       66      -0.09144811       0.04727683      -0.29175305
In       8.86274257       9.57824538      16.75741545  F       67      -0.04453624       0.06033375      -0.21982446
O        9.17763668       4.93473784      17.06350958  F       68      -0.14603160       0.22473884      -0.09745190
O        6.96851909       2.20035367      17.06350993  F       69       0.07776956      -0.03267521       0.04399548
O        5.70503103       5.48069763      17.06350990  F       70      -0.00812232       0.01685539       0.08997093
O       -2.01746347       4.98124236      17.10476289  F       71      -0.09620850       0.35994652      -0.39568204
O       -1.96111486      11.87234229      17.10476307  F       72       0.03786112      -0.10475810       0.16894983
O        3.97857827       8.37799246      17.10476382  F       73       0.01269239       0.06100034       0.09547284
O        6.94850543       8.48097521      17.29260816  F       74      -0.06145874      -0.02666232       0.03067798
O       11.15421650       2.35771879      17.29260829  F       75      -0.22433707      -0.36899763       0.34163684
O        3.74846506       1.77709453      17.29260778  F       76       0.12189496      -0.05662178      -0.08924405
O       -0.04640858       1.97058198      17.55952389  F       77       0.27902490      -0.35211864       0.16172622
O       -5.55395094      11.67068958      17.55952349  F       78      -0.03589523      -0.06511658      -0.00903161
O        5.60035973      11.59030666      17.55952404  F       79      -0.13704422      -0.19921102      -0.00778994
O       -1.63276557       9.41854194      18.51492068  T       80      -0.00182851      -0.00371367       0.01481974
O        1.72534118       9.38221500      18.48045938  T       81      -0.00117682       0.00904898       0.01343668
O       -0.16175667       6.72188259      18.47734798  T       82       0.00271105       0.00237858       0.00216651
O        3.35664490       6.09772484      18.66722489  T       83       0.00468574      -0.00425953       0.00346127
O       -3.65496865       6.74393934      18.71688667  T       84       0.00451937       0.00253356       0.00237441
O        0.35042759      12.49579122      18.68830664  T       85       0.00241679       0.00256420       0.00760558
O        9.16727005       9.13870218      18.95006101  T       86      -0.01329552       0.00037843       0.01020868
O        2.19961661       3.40190685      19.02942742  T       87       0.00540853       0.00059755      -0.00026846
O       10.63723398       0.11436970      19.05623239  T       88       0.00378907      -0.00490949       0.00150335
O        8.80084434       2.87961876      19.30687449  T       89       0.00603676       0.00369239       0.00333899
O        5.37230787       3.51224969      19.24620199  T       90       0.00451431      -0.00152564       0.00716218
O        7.62331302       6.25916452      19.25508804  T       91       0.00735599      -0.00300056      -0.00080433
In      -1.86894663       5.51975303      19.44807619  T       92      -0.00598735       0.02417770      -0.00372849
In      -1.54685189      11.44236717      19.49967197  T       93       0.00602634       0.00286328      -0.00777442
In       6.94990392       1.93286789      19.22708473  T       94      -0.00192454       0.00591902       0.00389008
In       3.38616381       8.23098085      19.48579769  T       95       0.00529435      -0.01421603      -0.00586745
In       5.45976176       5.61199990      19.22193845  T       96      -0.00167749      -0.00032523      -0.00210090
In       9.31845845       5.08270898      19.20256327  T       97       0.00808471       0.01418298      -0.00284243
In       0.07796227       8.49890831      19.69858095  T       98      -0.00149828      -0.00414593      -0.01830010
In       3.68623471       1.95037155      19.46514187  T       99       0.01192636      -0.01373841       0.00326121
In      10.91760624       2.17414681      19.56951893  T      100       0.00313649       0.00517559      -0.00510702
In       7.16219327       8.45690654      19.45946293  T      101       0.00816944       0.00445527      -0.00461558
In      -5.47465525      11.33197101      19.69421798  T      102      -0.00400203       0.00029163      -0.00116059
In      -3.38263914       8.68878115      19.52750378  T      103      -0.00510506       0.00287803      -0.01280192
In       0.36824452       2.24264974      19.75840988  T      104       0.01332196       0.01068422       0.00192754
In       1.46120955       5.48058090      19.45084626  T      105       0.00960723      -0.01175700      -0.00861724
In       1.84085212      11.22674345      19.62443438  T      106      -0.01232698      -0.00079964      -0.00739682
In       5.25751016      11.48008353      19.67022734  T      107      -0.00666259      -0.00314304       0.01490538
O        1.94468820       0.80833712      20.11299387  T      108       0.01466475      -0.02227297       0.00360796
O        7.10490747      10.50238106      20.17429542  T      109       0.00518960       0.00378391       0.00076705
O       13.19698545       0.84567665      20.09794933  T      110      -0.00133391       0.00179997       0.00202075
O        5.34800502       7.54420210      20.09239597  T      111      -0.00944385      -0.00233976       0.00141573
O       11.07165842       4.22602242      19.69905879  T      112      -0.00898802      -0.00577590       0.00604151
O        5.36539108       0.85626109      20.12343918  T      113      -0.00309962       0.01279619      -0.00724354
O       -0.21793389       4.24151406      19.41591903  T      114       0.01685265      -0.01542670      -0.00575702
O       -3.49338968      10.70004867      20.25833640  T      115       0.00897098       0.00048932      -0.00409502
O        3.68563232      10.24318140      20.29811871  T      116      -0.00129613       0.00314125      -0.00249541
O       -1.82610437       7.55994289      20.69043628  T      117      -0.00401470       0.00459605       0.00447166
O        0.08770925      10.45881497      20.62594654  T      118       0.01366490      -0.00685868       0.00209892
O        1.69874503       7.30730673      20.57615559  T      119       0.00382321       0.00604737       0.01293582
P       -1.64770995       3.39860002      22.13400273  T        0      -0.00275358      -0.01367106       0.01389700
O       -0.26659693       2.76152094      21.81616163  T        0       0.01054394      -0.00994039       0.00125717
O       -1.78508631       4.87387818      21.73892331  T        0      -0.00079285      -0.00565886       0.00559343
O       -2.79238971       2.43102646      21.65496091  T        0       0.00952119       0.00597382      -0.00589314
C       -1.72823292       3.34825788      23.95911122  T        0      -0.01498406      -0.00152071       0.00701457
H       -1.68996448       2.30268262      24.28384145  T        0      -0.00729907      -0.00292572       0.00401413
H       -0.86369891       3.89364621      24.35381911  T        0      -0.00837043       0.00180773      -0.00576489
H       -2.65761107       3.81724841      24.29787033  T        0      -0.02463347      -0.00434765      -0.00724487
H       -1.60877462       1.11348221      21.02298548  T        0       0.00187735       0.01366734      -0.01064777
H       -1.86166902       7.23883068      21.61259762  T        0       0.00862648       0.01092813       0.00087851
