130
Lattice="14.567458257780915 0.0 0.0 -7.283729128890462 12.615788919807672 0.0 0.0 0.0 33.04905420593702" Properties=species:S:1:pos:R:3:move_mask:L:1:spacegroup_kinds:I:1:forces:R:3 spacegroup="P 1" unit_cell=conventional occupancy="_JSON {\"0\": {\"O\": 1.0}, \"1\": {\"O\": 1.0}, \"2\": {\"O\": 1.0}, \"3\": {\"O\": 1.0}, \"4\": {\"O\": 1.0}, \"5\": {\"O\": 1.0}, \"6\": {\"O\": 1.0}, \"7\": {\"O\": 1.0}, \"8\": {\"O\": 1.0}, \"9\": {\"O\": 1.0}, \"10\": {\"O\": 1.0}, \"11\": {\"O\": 1.0}, \"12\": {\"In\": 1.0}, \"13\": {\"In\": 1.0}, \"14\": {\"In\": 1.0}, \"15\": {\"In\": 1.0}, \"16\": {\"In\": 1.0}, \"17\": {\"In\": 1.0}, \"18\": {\"In\": 1.0}, \"19\": {\"In\": 1.0}, \"20\": {\"In\": 1.0}, \"21\": {\"In\": 1.0}, \"22\": {\"In\": 1.0}, \"23\": {\"In\": 1.0}, \"24\": {\"In\": 1.0}, \"25\": {\"In\": 1.0}, \"26\": {\"In\": 1.0}, \"27\": {\"In\": 1.0}, \"28\": {\"O\": 1.0}, \"29\": {\"O\": 1.0}, \"30\": {\"O\": 1.0}, \"31\": {\"O\": 1.0}, \"32\": {\"O\": 1.0}, \"33\": {\"O\": 1.0}, \"34\": {\"O\": 1.0}, \"35\": {\"O\": 1.0}, \"36\": {\"O\": 1.0}, \"37\": {\"O\": 1.0}, \"38\": {\"O\": 1.0}, \"39\": {\"O\": 1.0}, \"40\": {\"O\": 1.0}, \"41\": {\"O\": 1.0}, \"42\": {\"O\": 1.0}, \"43\": {\"O\": 1.0}, \"44\": {\"O\": 1.0}, \"45\": {\"O\": 1.0}, \"46\": {\"O\": 1.0}, \"47\": {\"O\": 1.0}, \"48\": {\"O\": 1.0}, \"49\": {\"O\": 1.0}, \"50\": {\"O\": 1.0}, \"51\": {\"O\": 1.0}, \"52\": {\"In\": 1.0}, \"53\": {\"In\": 1.0}, \"54\": {\"In\": 1.0}, \"55\": {\"In\": 1.0}, \"56\": {\"In\": 1.0}, \"57\": {\"In\": 1.0}, \"58\": {\"In\": 1.0}, \"59\": {\"In\": 1.0}, \"60\": {\"In\": 1.0}, \"61\": {\"In\": 1.0}, \"62\": {\"In\": 1.0}, \"63\": {\"In\": 1.0}, \"64\": {\"In\": 1.0}, \"65\": {\"In\": 1.0}, \"66\": {\"In\": 1.0}, \"67\": {\"In\": 1.0}, \"68\": {\"O\": 1.0}, \"69\": {\"O\": 1.0}, \"70\": {\"O\": 1.0}, \"71\": {\"O\": 1.0}, \"72\": {\"O\": 1.0}, \"73\": {\"O\": 1.0}, \"74\": {\"O\": 1.0}, \"75\": {\"O\": 1.0}, \"76\": {\"O\": 1.0}, \"77\": {\"O\": 1.0}, \"78\": {\"O\": 1.0}, \"79\": {\"O\": 1.0}, \"80\": {\"O\": 1.0}, \"81\": {\"O\": 1.0}, \"82\": {\"O\": 1.0}, \"83\": {\"O\": 1.0}, \"84\": {\"O\": 1.0}, \"85\": {\"O\": 1.0}, \"86\": {\"O\": 1.0}, \"87\": {\"O\": 1.0}, \"88\": {\"O\": 1.0}, \"89\": {\"O\": 1.0}, \"90\": {\"O\": 1.0}, \"91\": {\"O\": 1.0}, \"92\": {\"In\": 1.0}, \"93\": {\"In\": 1.0}, \"94\": {\"In\": 1.0}, \"95\": {\"In\": 1.0}, \"96\": {\"In\": 1.0}, \"97\": {\"In\": 1.0}, \"98\": {\"In\": 1.0}, \"99\": {\"In\": 1.0}, \"100\": {\"In\": 1.0}, \"101\": {\"In\": 1.0}, \"102\": {\"In\": 1.0}, \"103\": {\"In\": 1.0}, \"104\": {\"In\": 1.0}, \"105\": {\"In\": 1.0}, \"106\": {\"In\": 1.0}, \"107\": {\"In\": 1.0}, \"108\": {\"O\": 1.0}, \"109\": {\"O\": 1.0}, \"110\": {\"O\": 1.0}, \"111\": {\"O\": 1.0}, \"112\": {\"O\": 1.0}, \"113\": {\"O\": 1.0}, \"114\": {\"O\": 1.0}, \"115\": {\"O\": 1.0}, \"116\": {\"O\": 1.0}, \"117\": {\"O\": 1.0}, \"118\": {\"O\": 1.0}, \"119\": {\"O\": 1.0}}" energy=-716.5135498046875 free_energy=-716.5135498046875 stress="0.0065709976479411125 2.0865983969997615e-05 -4.0218117646873e-05 2.0865983969997615e-05 0.005397399887442589 0.00010303224553354084 -4.0218117646873e-05 0.00010303224553354084 0.0001384416682412848" pbc="T T T"
O        5.56112551       5.29730098      12.44442493  F        0      -0.00595593       0.02000499       0.02099144
O        7.19929797       2.16742567      12.44442488  F        1       0.00436894      -0.00066251       0.00696290
O        9.09076378       5.15106294      12.44442506  F        2       0.00400016       0.01340226       0.01823640
O        3.56236441       2.32744963      12.81467041  F        3       0.00825855      -0.00224132      -0.01307225
O       10.77064547       1.92137361      12.81467059  F        4      -0.00438330       0.00790876      -0.01101452
O        7.51817736       8.36696557      12.81467060  F        5      -0.00546996      -0.00782928       0.01128185
O       -3.86713652       8.43746206      12.95843886  F        6       0.01968443      -0.01732655       0.02819479
O        1.91024068       5.04801920      12.95843918  F        7       0.01019493       0.04997096       0.01515955
O        1.95689587      11.74609578      12.95843921  F        8      -0.01130538      -0.03482226       0.02166462
O       -5.62751792      11.43742505      12.90107995  F        9       0.01299914      -0.00661232      -0.00167340
O        0.19238766       2.02350350      12.90107932  F       10      -0.02811410       0.00926278      -0.01806635
O        5.43512990      11.77064967      12.90107909  F       11      -0.00157425      -0.04898439       0.00010782
In       2.02827288       0.93415595      13.34696164  F       12      -0.00690804       0.02057454       0.09055817
In       5.45297263       1.43044201      13.46548669  F       13      -0.00778186      -0.00340085      -0.01505606
In       5.79604177       7.17815473      13.46548635  F       14       0.01375237      -0.00694487      -0.06837410
In       7.07859496      10.39217548      13.34696140  F       15       0.01491909       0.01443821       0.00266060
In      10.60217256       4.00719198      13.46548647  F       16       0.01459341      -0.02353350      -0.03193624
In      12.74431985       1.28945811      13.34696112  F       17       0.00189575      -0.00016516       0.08069029
In      -3.76992867      10.45841758      13.58493911  F       18      -0.01119957       0.03356159      -0.01971513
In       0.11143913       4.12172609      13.58493797  F       19       0.00628215      -0.04044419       0.04772131
In       7.28372934       4.20526284      13.28077194  F       20      -0.01004781      -0.02887823      -0.02255233
In       3.65848992      10.65143468      13.58493907  F       21       0.00664618       0.03958923      -0.03120156
In      -2.12514371       7.57248039      13.82744761  F       22      -0.03135684       0.01368238      -0.08000571
In       1.78834112       6.98912009      13.82744861  F       23      -0.00974055      -0.06149836      -0.10135940
In       3.89762555       4.37439996      13.55369945  F       24       0.00751571      -0.05263291      -0.00089703
In       0.33680320      10.66997741      13.82744770  F       25       0.01038252       0.05789669      -0.05237643
In       8.83030441       1.18824328      13.55369950  F       26       0.00448783       0.00543517       0.01183880
In       9.12325787       7.05314622      13.55369981  F       27      -0.01255187      -0.01410313      -0.08033718
O        1.94314284       9.09920259      13.79983277  F       28       0.00335023      -0.01594728       0.06484088
O       -0.37515974       6.38337672      13.79983300  F       29       0.00670868       0.03017080       0.06566113
O       -1.56798334       9.74899853      13.79983313  F       30      -0.00318962      -0.02661555       0.03648174
O       -1.90665604       3.49451490      14.07374983  F       31      -0.02594109       0.04381752       0.01839216
O       -3.30406258      12.51974383      14.07375025  F       32       0.02839321      -0.02974129      -0.02766980
O        5.21071859       9.21731872      14.07374980  F       33      -0.02176285      -0.03327951       0.05952773
O        6.95268262       0.11029125      14.35625235  F       34      -0.00626761      -0.02287057       0.01001650
O        3.90290295       6.53944318      14.35625252  F       35      -0.00613175       0.06210160       0.11119381
O       10.99560128       5.96605484      14.35625280  F       36       0.00809240       0.01648933       0.07913839
O        5.60077915       3.29585311      14.56420047  F       37       0.00439341       0.04519160      -0.00269675
O        8.91277589       3.20249084      14.56420075  F       38      -0.01140088       0.02226707       0.02529222
O        7.33763173       6.11744518      14.56420087  F       39       0.02445512       0.01116282       0.07095659
O        1.68336921       1.02548187      15.48953070  F       40       0.11399139      -0.05393629      -0.13381515
O       12.83768043       0.94510034      15.48953027  F       41      -0.13899565      -0.05217922      -0.10394503
O        7.33013789      10.64520717      15.48953039  F       42      -0.00693886      -0.06909254       0.01748870
O       -3.87048772      10.25806959      15.75644575  F       43       0.05210575      -0.05656201       0.04119112
O        0.33522381       4.13481358      15.75644581  F       44      -0.04695016       0.27863160      -0.16786051
O        3.53526358      10.83869431      15.75644572  F       45      -0.03714707      -0.14201999       0.03264394
O        9.24484356       0.74344663      15.94429150  F       46      -0.02108321      -0.00259560      -0.05718738
O        3.30515102       4.23779662      15.94429168  F       47       0.06592336       0.17777383      -0.00531326
O        9.30119327       7.63454631      15.94429132  F       48       0.11827475      -0.08848259       0.15993130
O       -1.89390768       7.68105065      15.98554452  F       49       0.02931699      -0.05419844       0.12284737
O        1.57869822       7.13509120      15.98554413  F       50      -0.06734350      -0.01001757       0.18830881
O        0.31520971      10.41543579      15.98554439  F       51      -0.04445650      -0.09712049       0.09858286
In      -1.57901381       3.03754313      16.29163881  F       52       0.37073743      -0.17888625       0.37915853
In      -3.86363272      12.46448245      16.29163869  F       53      -0.07344814       0.15828420      -0.01634352
In      -0.30746998       6.17668715      16.39885574  F       54       0.01306148      -0.03871775       0.36866328
In      -1.78082649       9.79372205      16.39885556  F       55      -0.06121492       0.05659489      -0.15972859
In       2.08829635       9.26116873      16.39885555  F       56      -0.12700421       0.15293437      -0.36682937
In       5.44264624       9.72955081      16.29163837  F       57       0.15837303       0.20179906      -0.14852442
In      14.56745775       0.00000023      16.52452729  F       58       0.02710715       0.36628371       0.10250718
In       7.28372884       0.00000046      16.52452727  F       59       0.04667313       0.12897232      -0.11585399
In       3.64186448       6.30789445      16.52452688  F       60      -0.02852475      -0.24106698      -0.18363097
In      -3.64186467       6.30789479      16.52452729  F       61       0.03254891       0.04097800       0.00581734
In       9.06455585       2.82206686      16.65019864  F       62      -0.01319855      -0.17492384      -0.05418842
In       1.84108280       2.88623741      16.75741682  F       63      -0.31252995      -0.10249052       0.47404319
In       5.19543306       3.35462016      16.65019954  F       64      -0.08603311      -0.16077155      -0.02801065
In      11.14736129       0.15130547      16.75741597  F       65       0.04294331       0.05344667      -0.17093593
In       7.59119877       6.43910216      16.65019924  F       66      -0.02528738       0.00867150      -0.08738753
In       8.86274257       9.57824538      16.75741545  F       67      -0.00638036       0.15382227      -0.14528853
O        9.17763668       4.93473784      17.06350958  F       68       0.20705241       0.27954066       0.20218381
O        6.96851909       2.20035367      17.06350993  F       69      -0.04453219       0.06417826      -0.08248394
O        5.70503103       5.48069763      17.06350990  F       70      -0.19060098       0.14279310       0.13765290
O       -2.01746347       4.98124236      17.10476289  F       71      -0.32169923       0.50721216      -0.37680244
O       -1.96111486      11.87234229      17.10476307  F       72      -0.00971788      -0.10691449       0.10724299
O        3.97857827       8.37799246      17.10476382  F       73       0.06069839       0.07275568       0.10735749
O        6.94850543       8.48097521      17.29260816  F       74      -0.05874199      -0.03716700       0.05634326
O       11.15421650       2.35771879      17.29260829  F       75      -0.09883648       0.04824859      -0.05456802
O        3.74846506       1.77709453      17.29260778  F       76       0.23047052      -0.18103290      -0.18029940
O       -0.04640858       1.97058198      17.55952389  F       77       0.18488795      -0.75078547      -0.22431347
O       -5.55395094      11.67068958      17.55952349  F       78       0.00784429      -0.15213816      -0.09530181
O        5.60035973      11.59030666      17.55952404  F       79      -0.08327354      -0.19290566      -0.06948030
O       -1.68218357       9.42351553      18.49749370  T       80      -0.00031564      -0.01769361       0.00969905
O        1.70234205       9.34863094      18.47829544  T       81       0.00587277      -0.00010040       0.00668883
O       -0.10732548       6.69788480      18.57352768  T       82       0.00932260      -0.00672531      -0.01004282
O        3.32302928       6.17536486      18.71664519  T       83       0.01970404       0.01730093       0.00409393
O       -3.57860449       6.65534165      18.80555508  T       84      -0.01487651       0.00521147       0.01045556
O        0.30111501      12.51793330      18.68151861  T       85       0.00274962       0.00282848       0.01488613
O        9.18718993       9.09480605      18.95587445  T       86       0.01126656       0.00106239       0.00088722
O        2.22255095       3.40560933      18.93698687  T       87       0.00533623      -0.00091955       0.00251055
O       10.53801351       0.07605675      18.92882451  T       88       0.00271726       0.00636269       0.00552067
O        8.83610840       2.85522122      19.23127095  T       89       0.00183725       0.00219716       0.00994891
O        5.37080251       3.53662354      19.25718918  T       90       0.02081721       0.00326061      -0.00217712
O        7.66420778       6.23544205      19.23820584  T       91       0.00993124       0.00183886       0.00270945
In      -1.85935856       5.36537639      19.37418112  T       92       0.02111629       0.00593385       0.00551511
In      -1.58428968      11.48803962      19.47045119  T       93       0.00301880      -0.00298631      -0.00606859
In       6.93629362       1.95807727      19.21903884  T       94      -0.01857387       0.01135094      -0.01938461
In       3.49074369       8.33809103      19.38983701  T       95       0.00618362      -0.00235147       0.00482348
In       5.48321819       5.62011843      19.22613754  T       96       0.00994018       0.00879692       0.01108988
In       9.37911227       5.01461930      19.23258400  T       97      -0.01706210       0.01406915      -0.01050100
In      -0.02823854       8.55831432      19.68766149  T       98      -0.01395914       0.00764918      -0.00083020
In       3.62206674       1.95092042      19.47128855  T       99       0.00629397       0.00736014      -0.00252895
In      11.02344825       2.11306584      19.45371896  T      100       0.00485887      -0.01398780      -0.00975533
In       7.18766054       8.48002537      19.46375067  T      101      -0.00157049      -0.00473773      -0.01301338
In      -5.49773351      11.36393227      19.69150674  T      102       0.00668633      -0.00859435       0.00290573
In      -3.38450104       8.68101712      19.60789665  T      103      -0.00227045      -0.00392707       0.00720896
In       0.17039940       2.17786936      19.79474535  T      104       0.00227712       0.00446454       0.00496095
In       1.48790527       5.36799885      19.49296261  T      105      -0.01958026      -0.00607753       0.00321730
In       1.82897075      11.23771318      19.58321492  T      106      -0.02377238       0.00063514       0.00400035
In       5.26366923      11.66897497      19.69093434  T      107       0.02330819       0.00340711      -0.00804359
O        1.83648993       0.83852815      20.12026477  T      108       0.01308915       0.00472637       0.00264397
O        7.09387864      10.56326242      20.14166874  T      109      -0.01288046      -0.00110940       0.00146806
O       12.84629181       1.11584850      20.08910079  T      110       0.00839508      -0.00826836      -0.00556883
O        5.38259416       7.55833189      20.08781542  T      111       0.00540684      -0.00062213      -0.00780988
O       11.08646672       4.12793639      20.07310329  T      112      -0.00014991       0.00087349       0.01204014
O        5.32278689       0.89990286      20.11753137  T      113       0.01819608       0.00534254       0.00869220
O       -0.24604911       4.12630839      19.16262990  T      114       0.01732412       0.00481910       0.00621337
O       -3.52148710      10.76337023      20.19397264  T      115      -0.01002845       0.00123347       0.00916803
O        3.72774031      10.30926851      20.24310105  T      116       0.00883821      -0.01838080       0.00400615
O       -1.82150977       8.07147565      20.95259852  T      117       0.00785697      -0.00516638       0.01156008
O        0.08109604      10.52484967      20.57689394  T      118       0.01028132       0.00288153       0.01217937
O        1.76256384       7.61082422      20.60981513  T      119       0.01301280      -0.01076750      -0.00931966
P       -0.01396699       4.58288393      22.07589302  T        0       0.00023161       0.00491405      -0.00427264
O       -0.15405845       3.08006128      21.80143475  T        0       0.01333359       0.00972962       0.00954467
O        1.37226195       5.13216737      21.62544277  T        0       0.00221717      -0.01595157       0.00490782
O       -1.16964335       5.48360123      21.54804889  T        0       0.01006985      -0.00489354      -0.00164917
C       -0.03226877       4.76543633      23.88665383  T        0      -0.00250467       0.00113592      -0.00225657
H       -0.96866303       4.35641420      24.27900277  T        0      -0.00817323       0.00763719      -0.00121441
H        0.82091169       4.21248109      24.29197472  T        0      -0.00791669       0.00009596       0.00713585
H        0.05306829       5.82778799      24.13937553  T        0      -0.01115865      -0.00193991       0.01060010
H        1.76625433       7.22041307      21.50611945  T        0       0.00671258       0.00223077       0.00203443
H       -1.74706027       7.22348304      21.45262487  T        0       0.00422613      -0.00145884       0.00768176
