130
Lattice="14.567458257780915 0.0 0.0 -7.283729128890462 12.615788919807672 0.0 0.0 0.0 33.04905420593702" Properties=species:S:1:pos:R:3:move_mask:L:1:spacegroup_kinds:I:1:forces:R:3 spacegroup="P 1" unit_cell=conventional occupancy="_JSON {\"0\": {\"O\": 1.0}, \"1\": {\"O\": 1.0}, \"2\": {\"O\": 1.0}, \"3\": {\"O\": 1.0}, \"4\": {\"O\": 1.0}, \"5\": {\"O\": 1.0}, \"6\": {\"O\": 1.0}, \"7\": {\"O\": 1.0}, \"8\": {\"O\": 1.0}, \"9\": {\"O\": 1.0}, \"10\": {\"O\": 1.0}, \"11\": {\"O\": 1.0}, \"12\": {\"In\": 1.0}, \"13\": {\"In\": 1.0}, \"14\": {\"In\": 1.0}, \"15\": {\"In\": 1.0}, \"16\": {\"In\": 1.0}, \"17\": {\"In\": 1.0}, \"18\": {\"In\": 1.0}, \"19\": {\"In\": 1.0}, \"20\": {\"In\": 1.0}, \"21\": {\"In\": 1.0}, \"22\": {\"In\": 1.0}, \"23\": {\"In\": 1.0}, \"24\": {\"In\": 1.0}, \"25\": {\"In\": 1.0}, \"26\": {\"In\": 1.0}, \"27\": {\"In\": 1.0}, \"28\": {\"O\": 1.0}, \"29\": {\"O\": 1.0}, \"30\": {\"O\": 1.0}, \"31\": {\"O\": 1.0}, \"32\": {\"O\": 1.0}, \"33\": {\"O\": 1.0}, \"34\": {\"O\": 1.0}, \"35\": {\"O\": 1.0}, \"36\": {\"O\": 1.0}, \"37\": {\"O\": 1.0}, \"38\": {\"O\": 1.0}, \"39\": {\"O\": 1.0}, \"40\": {\"O\": 1.0}, \"41\": {\"O\": 1.0}, \"42\": {\"O\": 1.0}, \"43\": {\"O\": 1.0}, \"44\": {\"O\": 1.0}, \"45\": {\"O\": 1.0}, \"46\": {\"O\": 1.0}, \"47\": {\"O\": 1.0}, \"48\": {\"O\": 1.0}, \"49\": {\"O\": 1.0}, \"50\": {\"O\": 1.0}, \"51\": {\"O\": 1.0}, \"52\": {\"In\": 1.0}, \"53\": {\"In\": 1.0}, \"54\": {\"In\": 1.0}, \"55\": {\"In\": 1.0}, \"56\": {\"In\": 1.0}, \"57\": {\"In\": 1.0}, \"58\": {\"In\": 1.0}, \"59\": {\"In\": 1.0}, \"60\": {\"In\": 1.0}, \"61\": {\"In\": 1.0}, \"62\": {\"In\": 1.0}, \"63\": {\"In\": 1.0}, \"64\": {\"In\": 1.0}, \"65\": {\"In\": 1.0}, \"66\": {\"In\": 1.0}, \"67\": {\"In\": 1.0}, \"68\": {\"O\": 1.0}, \"69\": {\"O\": 1.0}, \"70\": {\"O\": 1.0}, \"71\": {\"O\": 1.0}, \"72\": {\"O\": 1.0}, \"73\": {\"O\": 1.0}, \"74\": {\"O\": 1.0}, \"75\": {\"O\": 1.0}, \"76\": {\"O\": 1.0}, \"77\": {\"O\": 1.0}, \"78\": {\"O\": 1.0}, \"79\": {\"O\": 1.0}, \"80\": {\"O\": 1.0}, \"81\": {\"O\": 1.0}, \"82\": {\"O\": 1.0}, \"83\": {\"O\": 1.0}, \"84\": {\"O\": 1.0}, \"85\": {\"O\": 1.0}, \"86\": {\"O\": 1.0}, \"87\": {\"O\": 1.0}, \"88\": {\"O\": 1.0}, \"89\": {\"O\": 1.0}, \"90\": {\"O\": 1.0}, \"91\": {\"O\": 1.0}, \"92\": {\"In\": 1.0}, \"93\": {\"In\": 1.0}, \"94\": {\"In\": 1.0}, \"95\": {\"In\": 1.0}, \"96\": {\"In\": 1.0}, \"97\": {\"In\": 1.0}, \"98\": {\"In\": 1.0}, \"99\": {\"In\": 1.0}, \"100\": {\"In\": 1.0}, \"101\": {\"In\": 1.0}, \"102\": {\"In\": 1.0}, \"103\": {\"In\": 1.0}, \"104\": {\"In\": 1.0}, \"105\": {\"In\": 1.0}, \"106\": {\"In\": 1.0}, \"107\": {\"In\": 1.0}, \"108\": {\"O\": 1.0}, \"109\": {\"O\": 1.0}, \"110\": {\"O\": 1.0}, \"111\": {\"O\": 1.0}, \"112\": {\"O\": 1.0}, \"113\": {\"O\": 1.0}, \"114\": {\"O\": 1.0}, \"115\": {\"O\": 1.0}, \"116\": {\"O\": 1.0}, \"117\": {\"O\": 1.0}, \"118\": {\"O\": 1.0}, \"119\": {\"O\": 1.0}}" energy=-717.1661987304688 free_energy=-717.1661987304688 stress="0.007194471545517445 0.00027916854014620185 7.453485886799172e-05 0.00027916854014620185 0.007387998979538679 -0.00010861705959541723 7.453485886799172e-05 -0.00010861705959541723 7.821578765287995e-05" pbc="T T T"
O        5.56112551       5.29730098      12.44442493  F        0      -0.01102725      -0.00480658       0.00356984
O        7.19929797       2.16742567      12.44442488  F        1       0.00062095      -0.01045218       0.00775146
O        9.09076378       5.15106294      12.44442506  F        2       0.01987770      -0.00281287       0.01080751
O        3.56236441       2.32744963      12.81467041  F        3      -0.00661039      -0.00527118      -0.00389600
O       10.77064547       1.92137361      12.81467059  F        4       0.02048133       0.00738376       0.00950986
O        7.51817736       8.36696557      12.81467060  F        5      -0.00676852       0.01183477      -0.01416916
O       -3.86713652       8.43746206      12.95843886  F        6       0.03949732      -0.01561183       0.01452076
O        1.91024068       5.04801920      12.95843918  F        7      -0.02763417       0.01454798       0.02952811
O        1.95689587      11.74609578      12.95843921  F        8      -0.01743734      -0.01258928       0.02290684
O       -5.62751792      11.43742505      12.90107995  F        9       0.01838540       0.02584339      -0.00061524
O        0.19238766       2.02350350      12.90107932  F       10      -0.02880700       0.02221998       0.02431124
O        5.43512990      11.77064967      12.90107909  F       11       0.00087275       0.00117679       0.01019800
In       2.02827288       0.93415595      13.34696164  F       12       0.01745509      -0.00696200      -0.00152437
In       5.45297263       1.43044201      13.46548669  F       13       0.00259313       0.00757793      -0.02697749
In       5.79604177       7.17815473      13.46548635  F       14       0.01237801      -0.00906408      -0.00877351
In       7.07859496      10.39217548      13.34696140  F       15       0.00898470      -0.02364949       0.03127478
In      10.60217256       4.00719198      13.46548647  F       16      -0.06097519       0.00254345      -0.05801484
In      12.74431985       1.28945811      13.34696112  F       17      -0.01173766      -0.02894256      -0.02985503
In      -3.76992867      10.45841758      13.58493911  F       18      -0.02206229      -0.00462862       0.03023134
In       0.11143913       4.12172609      13.58493797  F       19       0.03248092      -0.00588372      -0.08662306
In       7.28372934       4.20526284      13.28077194  F       20      -0.00262877       0.03116225      -0.00041099
In       3.65848992      10.65143468      13.58493907  F       21       0.01660984      -0.01129464      -0.00370404
In      -2.12514371       7.57248039      13.82744761  F       22      -0.06066579       0.03269605      -0.07148144
In       1.78834112       6.98912009      13.82744861  F       23       0.05470016      -0.02055906      -0.04160665
In       3.89762555       4.37439996      13.55369945  F       24       0.03356221       0.00476572      -0.01353274
In       0.33680320      10.66997741      13.82744770  F       25       0.02362338       0.02563284      -0.06511785
In       8.83030441       1.18824328      13.55369950  F       26      -0.00762544       0.02031934      -0.02924679
In       9.12325787       7.05314622      13.55369981  F       27      -0.05193783       0.00820382       0.01206977
O        1.94314284       9.09920259      13.79983277  F       28      -0.01801846       0.01131308       0.02278149
O       -0.37515974       6.38337672      13.79983300  F       29      -0.01138851      -0.02397901       0.07419047
O       -1.56798334       9.74899853      13.79983313  F       30       0.00505030      -0.02736862       0.03939241
O       -1.90665604       3.49451490      14.07374983  F       31      -0.00033331       0.02706647       0.13004006
O       -3.30406258      12.51974383      14.07375025  F       32       0.01286724       0.01223496       0.00388747
O        5.21071859       9.21731872      14.07374980  F       33      -0.02593720       0.00748137      -0.02414566
O        6.95268262       0.11029125      14.35625235  F       34      -0.00009027      -0.01011214       0.03671296
O        3.90290295       6.53944318      14.35625252  F       35      -0.03416651       0.00477582      -0.00157110
O       10.99560128       5.96605484      14.35625280  F       36       0.07817167      -0.03894961       0.09810187
O        5.60077915       3.29585311      14.56420047  F       37      -0.01356522      -0.00434339       0.00775421
O        8.91277589       3.20249084      14.56420075  F       38       0.01743223      -0.03456362       0.01494807
O        7.33763173       6.11744518      14.56420087  F       39       0.01669726      -0.01924212      -0.06150901
O        1.68336921       1.02548187      15.48953070  F       40      -0.00871463       0.05568081       0.02455628
O       12.83768043       0.94510034      15.48953027  F       41      -0.02201211       0.05538707       0.06350426
O        7.33013789      10.64520717      15.48953039  F       42      -0.00705396       0.07153180      -0.04851063
O       -3.87048772      10.25806959      15.75644575  F       43       0.09733800       0.01584464      -0.03408242
O        0.33522381       4.13481358      15.75644581  F       44      -0.11102246       0.07803462       0.10011268
O        3.53526358      10.83869431      15.75644572  F       45      -0.02515557      -0.00719169       0.00996458
O        9.24484356       0.74344663      15.94429150  F       46       0.03800619       0.04628718       0.05187038
O        3.30515102       4.23779662      15.94429168  F       47      -0.08887416      -0.03346941       0.00688775
O        9.30119327       7.63454631      15.94429132  F       48       0.19300331      -0.06188628      -0.02309459
O       -1.89390768       7.68105065      15.98554452  F       49       0.04296845      -0.11470644       0.06738292
O        1.57869822       7.13509120      15.98554413  F       50      -0.04994047       0.00127540       0.05214573
O        0.31520971      10.41543579      15.98554439  F       51      -0.08588478      -0.06947905       0.11630687
In      -1.57901381       3.03754313      16.29163881  F       52       0.11182316      -0.24729387      -0.20886745
In      -3.86363272      12.46448245      16.29163869  F       53      -0.07527561      -0.04437109      -0.01246274
In      -0.30746998       6.17668715      16.39885574  F       54       0.26301262       0.16252336      -0.54347754
In      -1.78082649       9.79372205      16.39885556  F       55      -0.15163822      -0.09514490       0.38713047
In       2.08829635       9.26116873      16.39885555  F       56       0.10078409       0.01141759      -0.16680548
In       5.44264624       9.72955081      16.29163837  F       57       0.16535228      -0.10312170       0.01156084
In      14.56745775       0.00000023      16.52452729  F       58       0.06622389      -0.12291040      -0.05532468
In       7.28372884       0.00000046      16.52452727  F       59       0.02407573       0.02462714      -0.00419800
In       3.64186448       6.30789445      16.52452688  F       60       0.14321984      -0.05496943      -0.06433732
In      -3.64186467       6.30789479      16.52452729  F       61      -0.44846720       0.17388344       0.03421914
In       9.06455585       2.82206686      16.65019864  F       62      -0.10350327       0.20168254      -0.11423130
In       1.84108280       2.88623741      16.75741682  F       63       0.10262126      -0.01143651      -0.05822619
In       5.19543306       3.35462016      16.65019954  F       64       0.03879581       0.14972335      -0.04403558
In      11.14736129       0.15130547      16.75741597  F       65       0.04045072      -0.22261104      -0.31603503
In       7.59119877       6.43910216      16.65019924  F       66      -0.05314883       0.06718025       0.17808563
In       8.86274257       9.57824538      16.75741545  F       67      -0.02178842      -0.04971774      -0.04811712
O        9.17763668       4.93473784      17.06350958  F       68       0.33533853      -0.12841561       0.41682595
O        6.96851909       2.20035367      17.06350993  F       69       0.08622686       0.00298962       0.11346270
O        5.70503103       5.48069763      17.06350990  F       70      -0.43967986      -0.23687257      -0.28209418
O       -2.01746347       4.98124236      17.10476289  F       71       0.13174915      -0.05019283       0.15109476
O       -1.96111486      11.87234229      17.10476307  F       72       0.07128614      -0.21858215       0.15525118
O        3.97857827       8.37799246      17.10476382  F       73      -0.06852818       0.01642144       0.09498537
O        6.94850543       8.48097521      17.29260816  F       74      -0.23269582       0.37249923      -0.26498398
O       11.15421650       2.35771879      17.29260829  F       75       0.08601528       0.04644561       0.22083458
O        3.74846506       1.77709453      17.29260778  F       76       0.00300938       0.04173049       0.05065072
O       -0.04640858       1.97058198      17.55952389  F       77      -0.05490012       0.09077016      -0.01742585
O       -5.55395094      11.67068958      17.55952349  F       78      -0.01267314       0.16785805      -0.06972367
O        5.60035973      11.59030666      17.55952404  F       79      -0.00484706       0.04051955       0.03700189
O       -1.70379258       9.32866458      18.55174878  T       80      -0.00309933      -0.00684342      -0.00473875
O        1.70452197       9.33900448      18.48071055  T       81      -0.02204965      -0.00619510      -0.00400436
O       -0.02965260       6.53804398      18.46523997  T       82       0.00998867       0.01302867       0.00419664
O        3.38286376       6.09044769      18.69610830  T       83       0.00886494       0.00336900      -0.00169834
O       -3.64160590       6.58340775      18.74354927  T       84       0.01580052      -0.01163710       0.01010196
O        0.33132185      12.50523157      18.69839987  T       85       0.00276247      -0.00063406      -0.00399725
O        9.18056257       9.14741397      18.91875014  T       86      -0.00908928       0.00040287      -0.01039138
O        2.07406687       3.41560783      18.97671110  T       87       0.00587922       0.00010654       0.01044917
O       10.57556181       0.03351726      18.94149875  T       88      -0.00849414      -0.01768592       0.00155243
O        8.90084147       2.87580346      19.24322979  T       89       0.00977647      -0.00076218      -0.00943625
O        5.36344373       3.52287773      19.26854906  T       90      -0.00122314       0.00007373       0.00433040
O        7.59333910       6.30594829      18.99454770  T       91      -0.00832844       0.00084251       0.00400418
In      -1.78357577       5.53782866      19.33684676  T       92      -0.01222476       0.00634910       0.00296805
In      -1.58397442      11.40788520      19.48619147  T       93      -0.01696589       0.00423601      -0.00671016
In       6.95649976       1.94507461      19.22143771  T       94       0.00632069       0.01169156      -0.00075014
In       3.42337589       8.24640362      19.49825634  T       95      -0.01675594       0.00743840       0.00714044
In       5.50433131       5.64483881      19.20739253  T       96       0.00024397      -0.00395262      -0.00028569
In       9.31283875       5.09898523      19.31496047  T       97       0.00127991       0.00452548      -0.00767133
In       0.06704452       8.46698027      19.69653874  T       98       0.00509830       0.01175885      -0.01069374
In       3.63223417       1.97533221      19.46408501  T       99      -0.00592230      -0.00784163      -0.00287156
In      10.99826566       2.04653391      19.43726708  T      100       0.01110094      -0.00106601       0.01533797
In       7.18848639       8.48683895      19.45407468  T      101      -0.00676506      -0.00782190      -0.00281358
In      -5.46403842      11.33725266      19.69604808  T      102      -0.00728564      -0.01524834      -0.00744644
In      -3.48578215       8.57383393      19.78656513  T      103       0.00128894       0.00359277      -0.01391079
In       0.20067719       2.21976982      19.68880756  T      104      -0.00330088       0.00660484       0.00216547
In       1.51859685       5.44731503      19.59431993  T      105      -0.00054280      -0.00352948      -0.00221607
In       1.82756377      11.18778686      19.60639476  T      106      -0.00907967      -0.00058115       0.00346497
In       5.27665415      11.64658778      19.70081242  T      107      -0.01064964      -0.00157060       0.00256419
O        1.83535899       0.86644677      20.13770005  T      108       0.01205464      -0.01124798       0.01023024
O        7.10374722      10.58713396      20.15918287  T      109      -0.01301657      -0.01454066      -0.00351727
O       12.88037987       1.17170764      20.12475363  T      110       0.00076522      -0.00730426       0.00024235
O        5.38800172       7.56612605      20.13188538  T      111       0.00626600      -0.00719037       0.00381762
O       11.28250067       4.06900224      20.10069558  T      112       0.00255829      -0.01490450      -0.00599217
O        5.32921135       0.86397544      20.07122471  T      113      -0.00650530       0.00026278       0.00027674
O       -0.24686057       4.27062650      20.17561278  T      114      -0.00335455      -0.01621962       0.00759488
O       -3.50267142      10.71712609      20.25078911  T      115       0.00760986      -0.00388885      -0.01578814
O        3.72071896      10.28532489      20.25430628  T      116      -0.00223953       0.00674615       0.01173866
O       -1.65762738       7.42635203      20.62696306  T      117       0.01193553       0.00913834      -0.00357234
O        0.07325707      10.45218620      20.60604762  T      118      -0.00193652      -0.00044373       0.00691962
O        1.72424649       7.33592196      20.59415726  T      119      -0.00209370       0.01204522      -0.00052965
P       -4.49049382       6.36035313      22.12613560  T        0      -0.01298749      -0.00240541       0.00767767
O       -3.09984552       5.70912389      22.14788023  T        0      -0.00061393       0.01048899       0.00466654
O       -4.50483858       7.80418466      21.54906133  T        0      -0.01067007      -0.00166488      -0.00751248
O       -5.52766500       5.45417148      21.40115537  T        0      -0.00363612       0.01028758      -0.00467604
C       -5.16958222       6.50903267      23.81221378  T        0      -0.00424202       0.01311313      -0.00396195
H       -5.22418438       5.51147821      24.26011829  T        0       0.00924865       0.01295826      -0.00280363
H       -4.53621157       7.16150381      24.42109623  T        0       0.00703943       0.01150140      -0.01325309
H       -6.17753385       6.93231959      23.73234689  T        0      -0.00919324       0.01842572       0.00398179
H       -1.85106801       7.06269550      21.52707585  T        0      -0.00835070      -0.00158294      -0.01546812
H       -3.25022366       4.37190229      21.07031823  T        0      -0.00368820       0.00814234      -0.01822531
