758
Lattice="34.12851249988762 0.0 0.0 0.0 16.14835182838364 0.0 0.0 0.0 41.29287865270102" Properties=species:S:1:pos:R:3:move_mask:L:1:spacegroup_kinds:I:1:forces:R:3 spacegroup="P 1" unit_cell=conventional occupancy="_JSON {\"0\": {\"O\": 1.0}, \"1\": {\"O\": 1.0}, \"2\": {\"O\": 1.0}, \"3\": {\"Sn\": 1.0}, \"4\": {\"Sn\": 1.0}, \"5\": {\"O\": 1.0}, \"6\": {\"O\": 1.0}, \"7\": {\"O\": 1.0}, \"8\": {\"O\": 1.0}, \"9\": {\"Sn\": 1.0}, \"10\": {\"Sn\": 1.0}, \"11\": {\"O\": 1.0}, \"12\": {\"O\": 1.0}, \"13\": {\"O\": 1.0}, \"14\": {\"O\": 1.0}, \"15\": {\"Sn\": 1.0}, \"16\": {\"Sn\": 1.0}, \"17\": {\"O\": 1.0}, \"18\": {\"O\": 1.0}, \"19\": {\"O\": 1.0}, \"20\": {\"O\": 1.0}, \"21\": {\"Sn\": 1.0}, \"22\": {\"Sn\": 1.0}, \"23\": {\"O\": 1.0}, \"24\": {\"O\": 1.0}, \"25\": {\"O\": 1.0}, \"26\": {\"O\": 1.0}, \"27\": {\"Sn\": 1.0}, \"28\": {\"Sn\": 1.0}, \"29\": {\"O\": 1.0}}" energy=-4684.255859375 free_energy=-4684.255859375 stress="-0.0008965926826931536 3.416516392462654e-06 -4.152697329118382e-06 3.416516392462654e-06 0.007486190181225538 1.6651358691888163e-06 -4.152697329118382e-06 1.6651358691888163e-06 -8.117276593111455e-05" pbc="T T T"
O        6.82570209       3.22967013      12.43114757  F        0       0.00000522       0.00001185       0.00177938
O        2.15955932       1.61483561      13.63952349  F        1      -0.01634324      -0.00000836      -0.00652772
O        4.66614354       1.61483559      13.63952293  F        2       0.01633406      -0.00000926      -0.00652649
Sn       0.00000027       1.61483491      13.63204828  F        3       0.00001413       0.00000098      -0.00386074
Sn       3.41285158       0.00000054      13.93646918  F        4      -0.00000149      -0.00001423      -0.00040203
O        6.82570240       3.22967009      15.10100240  F        5       0.00000098       0.00000360       0.00305617
O        3.41285172       0.00000015      15.96367047  F        6       0.00000085       0.00000821       0.00351822
O        1.33539534       1.61483510      17.24202773  F        7      -0.00040714      -0.00001112      -0.00263527
O        5.49030709       1.61483510      17.24202843  F        8       0.00039871      -0.00001315      -0.00264403
Sn       6.82570204       3.22967024      17.17296284  F        9      -0.00000647       0.00005546       0.02620918
Sn       3.41285118       1.61483498      17.29794302  F       10       0.00000166       0.00003246      -0.01171646
O        3.41285153       0.00000003      18.57956262  F       11      -0.00000588       0.00005042       0.00270768
O        6.82570211       0.00000029      19.30782007  F       12      -0.00000560       0.00006851       0.00425227
O        2.09581546       1.61483502      20.64643965  F       13      -0.00585199      -0.00004830       0.00021168
O        4.72988702       1.61483499      20.64644013  F       14       0.00584153      -0.00005442       0.00020829
Sn       6.82570212       1.61483536      20.64643955  F       15      -0.00008089       0.00013518      -0.00017614
Sn       3.41285115       3.22967011      20.64643991  F       16       0.00003711       0.00044120      -0.00067247
O        6.82570211       0.00000010      21.98505885  F       17      -0.00019934       0.00027883      -0.00398834
O        3.41285109       3.22967028      22.71331588  F       18      -0.00002917      -0.00008697      -0.00195948
O        1.33539568       1.61483519      24.05084986  F       19      -0.00013448       0.00049545       0.00519481
O        5.49030724       1.61483501      24.05085043  F       20       0.00019331       0.00083066       0.00507484
Sn       0.00000081       3.22967028      24.11991567  F       21      -0.00204152       0.00192391      -0.02766553
Sn       3.41285108       1.61483508      23.99493530  F       22       0.00019044       0.00071368       0.01142832
O        3.41285137       0.00000012      25.32920843  F       23      -0.00012191       0.00074881       0.00951008
O       -0.00271782       3.22992997      26.19191102  T       24       0.00114297       0.00159349       0.00015521
O        2.15921128       1.61472143      27.65583856  T       25      -0.00256100       0.00290151       0.00005951
O        4.66746947       1.61437236      27.65560450  T       26       0.00270560       0.00332639      -0.00041880
Sn       6.82790522       1.61407235      27.66071426  T       27       0.00238452       0.00185502       0.00054508
Sn       3.41330156      -0.00065898      27.35712051  T       28       0.00016984       0.00063309       0.00467247
O        6.83288931       3.22907311      28.86120061  T       29      -0.00304851       0.00370825      -0.00128448
O        6.82570209       6.45934050      12.43114757  F        0       0.00000392      -0.00000014       0.00179428
O        2.15955932       4.84450598      13.63952349  F        1      -0.01633829      -0.00000213      -0.00653116
O        4.66614354       4.84450595      13.63952293  F        2       0.01633260      -0.00000170      -0.00652905
Sn       0.00000027       4.84450527      13.63204828  F        3       0.00001376       0.00001389      -0.00386027
Sn       3.41285158       3.22967091      13.93646918  F        4      -0.00000276      -0.00000404      -0.00038928
O        6.82570240       6.45934046      15.10100240  F        5      -0.00000430      -0.00001070       0.00303555
O        3.41285172       3.22967052      15.96367047  F        6      -0.00000145      -0.00001741       0.00351247
O        1.33539534       4.84450546      17.24202773  F        7      -0.00039116      -0.00005069      -0.00269800
O        5.49030709       4.84450547      17.24202843  F        8       0.00039029      -0.00004607      -0.00270756
Sn       6.82570204       6.45934061      17.17296284  F        9       0.00001901       0.00008499       0.02645822
Sn       3.41285118       4.84450535      17.29794302  F       10       0.00000165       0.00012159      -0.01158572
O        3.41285153       3.22967040      18.57956262  F       11      -0.00000787      -0.00008222       0.00268295
O        6.82570211       3.22967066      19.30782007  F       12      -0.00000710      -0.00017388       0.00420559
O        2.09581546       4.84450538      20.64643965  F       13      -0.00595236      -0.00037977       0.00009215
O        4.72988702       4.84450536      20.64644013  F       14       0.00592731      -0.00038597       0.00009041
Sn       6.82570212       4.84450573      20.64643955  F       15       0.00017972       0.00067107       0.00023163
Sn       3.41285115       6.45934047      20.64643991  F       16       0.00000413       0.00051344       0.00043771
O        6.82570211       3.22967047      21.98505885  F       17      -0.00021726      -0.00047260      -0.00420164
O        3.41285109       6.45934065      22.71331588  F       18       0.00002311      -0.00048561      -0.00369931
O        1.33539568       4.84450555      24.05084986  F       19      -0.00200765       0.00076209       0.00523126
O        5.49030724       4.84450537      24.05085043  F       20       0.00202751       0.00061128       0.00574972
Sn       0.00000081       6.45934065      24.11991567  F       21      -0.00485473       0.00284947      -0.01989128
Sn       3.41285108       4.84450545      23.99493530  F       22      -0.00001656       0.00474531       0.01513261
O        3.41285137       3.22967049      25.32920843  F       23       0.00001901      -0.00166805       0.01202108
O       -0.00259308       6.45963579      26.19267277  T       24       0.00127325       0.00145829      -0.00109380
O        2.15876152       4.84424099      27.65685773  T       25      -0.00208381       0.00449984      -0.00236107
O        4.66801153       4.84465405      27.65532209  T       26       0.00030413       0.00416066      -0.00060007
Sn       6.82904915       4.84505240      27.66191059  T       27       0.00466605       0.00196503      -0.00175145
Sn       3.41363245       3.23004964      27.35749665  T       28      -0.00036489       0.00261801       0.00071460
O        6.83042831       6.45952648      28.86257245  T       29      -0.00331964      -0.00008137      -0.00102884
O        6.82570209       9.68901086      12.43114757  F        0       0.00000155       0.00001838       0.00179678
O        2.15955932       8.07417635      13.63952349  F        1      -0.01634857      -0.00001186      -0.00653498
O        4.66614354       8.07417632      13.63952293  F        2       0.01633790      -0.00001021      -0.00653211
Sn       0.00000027       8.07417564      13.63204828  F        3       0.00000195       0.00000167      -0.00385132
Sn       3.41285158       6.45934127      13.93646918  F        4       0.00000050      -0.00000697      -0.00036603
O        6.82570240       9.68901082      15.10100240  F        5      -0.00000506       0.00000755       0.00302052
O        3.41285172       6.45934088      15.96367047  F        6      -0.00000288      -0.00001914       0.00346676
O        1.33539534       8.07417583      17.24202773  F        7      -0.00038138      -0.00001649      -0.00276452
O        5.49030709       8.07417583      17.24202843  F        8       0.00038140      -0.00002195      -0.00276814
Sn       6.82570204       9.68901097      17.17296284  F        9       0.00002935      -0.00001458       0.02654564
Sn       3.41285118       8.07417571      17.29794302  F       10       0.00000333       0.00004439      -0.01141906
O        3.41285153       6.45934077      18.57956262  F       11      -0.00000567      -0.00010602       0.00257302
O        6.82570211       6.45934102      19.30782007  F       12      -0.00001553      -0.00016098       0.00400029
O        2.09581546       8.07417575      20.64643965  F       13      -0.00604755      -0.00015654      -0.00006546
O        4.72988702       8.07417572      20.64644013  F       14       0.00605133      -0.00013106      -0.00007421
Sn       6.82570212       8.07417609      20.64643955  F       15       0.00025098       0.00029184       0.00080610
Sn       3.41285115       9.68901084      20.64643991  F       16       0.00000710      -0.00014893       0.00082399
O        6.82570211       6.45934083      21.98505885  F       17      -0.00044413      -0.00058805      -0.00447935
O        3.41285109       9.68901101      22.71331588  F       18      -0.00005872       0.00012501      -0.00427830
O        1.33539568       8.07417592      24.05084986  F       19      -0.00360163      -0.00036921       0.00379103
O        5.49030724       8.07417574      24.05085043  F       20       0.00354448      -0.00067508       0.00404783
Sn       0.00000081       9.68901101      24.11991567  F       21      -0.00559701      -0.00051850      -0.01933293
Sn       3.41285108       8.07417581      23.99493530  F       22      -0.00001484       0.00146139       0.01878420
O        3.41285137       6.45934085      25.32920843  F       23      -0.00024107      -0.00346137       0.01529175
O       -0.00307187       9.68877901      26.19260577  T       24       0.00127566      -0.00171971      -0.00095785
O        2.15738715       8.07475296      27.65536220  T       25      -0.00030527      -0.00084435      -0.00033502
O        4.66929573       8.07413572      27.65519608  T       26      -0.00159034      -0.00051421      -0.00035056
Sn       6.83413250       8.07451354      27.66253579  T       27      -0.00686466      -0.00160481      -0.00141096
Sn       3.41284116       6.46051744      27.35808984  T       28       0.00009324       0.00004543      -0.00275022
O        6.82844498       9.68882528      28.86319804  T       29      -0.00216812      -0.00231196      -0.00213766
O        6.82570209      12.91868123      12.43114757  F        0       0.00000398       0.00001534       0.00178385
O        2.15955932      11.30384671      13.63952349  F        1      -0.01635012       0.00000402      -0.00653642
O        4.66614354      11.30384668      13.63952293  F        2       0.01634118       0.00000675      -0.00653287
Sn       0.00000027      11.30384601      13.63204828  F        3       0.00000657      -0.00001725      -0.00384614
Sn       3.41285158       9.68901164      13.93646918  F        4       0.00000207      -0.00000941      -0.00035441
O        6.82570240      12.91868119      15.10100240  F        5      -0.00000304       0.00002138       0.00303584
O        3.41285172       9.68901125      15.96367047  F        6      -0.00000246      -0.00000211       0.00345379
O        1.33539534      11.30384619      17.24202773  F        7      -0.00038192       0.00003795      -0.00275129
O        5.49030709      11.30384620      17.24202843  F        8       0.00037670       0.00004006      -0.00275557
Sn       6.82570204      12.91868134      17.17296284  F        9       0.00001469      -0.00007722       0.02635856
Sn       3.41285118      11.30384608      17.29794302  F       10       0.00000273      -0.00009105      -0.01146292
O        3.41285153       9.68901113      18.57956262  F       11      -0.00000242       0.00002652       0.00253065
O        6.82570211       9.68901139      19.30782007  F       12      -0.00003220       0.00003835       0.00392593
O        2.09581546      11.30384611      20.64643965  F       13      -0.00596516       0.00028326      -0.00005408
O        4.72988702      11.30384609      20.64644013  F       14       0.00598096       0.00027769      -0.00005654
Sn       6.82570212      11.30384646      20.64643955  F       15       0.00031340      -0.00049619       0.00074335
Sn       3.41285115      12.91868120      20.64643991  F       16       0.00000206      -0.00056509       0.00005252
O        6.82570211       9.68901120      21.98505885  F       17      -0.00060474       0.00005729      -0.00470801
O        3.41285109      12.91868138      22.71331588  F       18      -0.00008550       0.00020630      -0.00298357
O        1.33539568      11.30384628      24.05084986  F       19      -0.00283383      -0.00056547       0.00471850
O        5.49030724      11.30384610      24.05085043  F       20       0.00264214      -0.00089788       0.00436228
Sn       0.00000081      12.91868138      24.11991567  F       21      -0.00404247      -0.00273479      -0.02522704
Sn       3.41285108      11.30384618      23.99493530  F       22       0.00012440      -0.00365903       0.01679869
O        3.41285137       9.68901122      25.32920843  F       23       0.00051900       0.00189275       0.01216458
O       -0.00265386      12.91875221      26.19201511  T       24       0.00341811      -0.00249336      -0.00096047
O        2.15813578      11.30400789      27.65530623  T       25      -0.00194097      -0.00521526      -0.00070652
O        4.66847982      11.30397185      27.65594444  T       26       0.00097597      -0.00494524      -0.00175632
Sn       6.83141917      11.30246202      27.66151374  T       27       0.00075307      -0.00142736      -0.00118080
Sn       3.41364803       9.68871024      27.35796921  T       28      -0.00114395      -0.00155259      -0.00150096
O        6.83227197      12.91756318      28.86146469  T       29      -0.00175713      -0.00146140       0.00067574
O        6.82570209      16.14835159      12.43114757  F        0       0.00000380       0.00000924       0.00178444
O        2.15955932      14.53351708      13.63952349  F        1      -0.01634097       0.00000793      -0.00653140
O        4.66614354      14.53351705      13.63952293  F        2       0.01633659       0.00000681      -0.00652735
Sn       0.00000027      14.53351637      13.63204828  F        3       0.00001181       0.00000050      -0.00385365
Sn       3.41285158      12.91868201      13.93646918  F        4       0.00000347      -0.00003162      -0.00037652
O        6.82570240      16.14835156      15.10100240  F        5       0.00000066       0.00001805       0.00305545
O        3.41285172      12.91868161      15.96367047  F        6       0.00000328       0.00002454       0.00349027
O        1.33539534      14.53351656      17.24202773  F        7      -0.00039324       0.00004800      -0.00267178
O        5.49030709      14.53351656      17.24202843  F        8       0.00038651       0.00003970      -0.00267837
Sn       6.82570204      16.14835170      17.17296284  F        9      -0.00000312      -0.00003648       0.02613594
Sn       3.41285118      14.53351644      17.29794302  F       10      -0.00000323      -0.00010062      -0.01163758
O        3.41285153      12.91868150      18.57956262  F       11      -0.00000113       0.00011616       0.00260759
O        6.82570211      12.91868175      19.30782007  F       12      -0.00002918       0.00023191       0.00405797
O        2.09581546      14.53351648      20.64643965  F       13      -0.00587265       0.00029920       0.00012588
O        4.72988702      14.53351646      20.64644013  F       14       0.00586431       0.00028677       0.00011002
Sn       6.82570212      14.53351682      20.64643955  F       15      -0.00000742      -0.00066532       0.00016189
Sn       3.41285115      16.14835157      20.64643991  F       16       0.00001947      -0.00023642      -0.00071851
O        6.82570211      12.91868157      21.98505885  F       17      -0.00026548       0.00059179      -0.00460396
O        3.41285109      16.14835175      22.71331588  F       18      -0.00006993       0.00026978      -0.00169896
O        1.33539568      14.53351665      24.05084986  F       19      -0.00053981      -0.00022133       0.00447518
O        5.49030724      14.53351647      24.05085043  F       20       0.00037315      -0.00051033       0.00420209
Sn       0.00000081      16.14835174      24.11991567  F       21      -0.00240005      -0.00155614      -0.02816568
Sn       3.41285108      14.53351654      23.99493530  F       22       0.00027238      -0.00331612       0.01246673
O        3.41285137      12.91868158      25.32920843  F       23       0.00025104       0.00191746       0.00825539
O       -0.00169565      16.14835853      26.19163224  T       24       0.00247700      -0.00004453       0.00070798
O        2.15866771      14.53329163      27.65533963  T       25      -0.00155210      -0.00260874      -0.00007636
O        4.66770202      14.53301831      27.65542785  T       26       0.00178051      -0.00251150       0.00043327
Sn       6.82852777      14.53223734      27.66084369  T       27       0.00272579      -0.00025198       0.00025186
Sn       3.41326858      12.91783411      27.35740452  T       28      -0.00099404      -0.00275146       0.00176245
O        6.83113060      16.14738126      28.86098257  T       29      -0.00202681       0.00053103       0.00117296
O       13.65140459       3.22967013      12.43114757  F        0       0.00000649       0.00000819       0.00178367
O        8.98526182       1.61483561      13.63952349  F        1      -0.01633331      -0.00000598      -0.00652351
O       11.49184604       1.61483559      13.63952293  F        2       0.01633695      -0.00000562      -0.00651811
Sn       6.82570277       1.61483491      13.63204828  F        3      -0.00000800      -0.00000668      -0.00386369
Sn      10.23855408       0.00000054      13.93646918  F        4      -0.00000270      -0.00002223      -0.00041521
O       13.65140490       3.22967009      15.10100240  F        5       0.00000330      -0.00001456       0.00305283
O       10.23855422       0.00000015      15.96367047  F        6       0.00000039       0.00002313       0.00351848
O        8.16109784       1.61483510      17.24202773  F        7      -0.00037944      -0.00001358      -0.00264500
O       12.31600959       1.61483510      17.24202843  F        8       0.00041865       0.00001371      -0.00262018
Sn      13.65140454       3.22967024      17.17296284  F        9       0.00014955       0.00034142       0.02609445
Sn      10.23855368       1.61483498      17.29794302  F       10      -0.00007453       0.00006062      -0.01182006
O       10.23855403       0.00000003      18.57956262  F       11       0.00002705       0.00008077       0.00266448
O       13.65140461       0.00000029      19.30782007  F       12      -0.00021069       0.00092540       0.00416287
O        8.92151796       1.61483502      20.64643965  F       13      -0.00572863      -0.00007508       0.00022883
O       11.55558952       1.61483499      20.64644013  F       14       0.00585391      -0.00006687       0.00052953
Sn      13.65140462       1.61483536      20.64643955  F       15      -0.00076863      -0.00018675      -0.00181542
Sn      10.23855365       3.22967011      20.64643991  F       16      -0.00054692       0.00063601      -0.00077993
O       13.65140461       0.00000010      21.98505885  F       17      -0.00147104       0.00345940      -0.00276500
O       10.23855359       3.22967028      22.71331588  F       18       0.00091861      -0.00125376      -0.00132941
O        8.16109818       1.61483519      24.05084986  F       19       0.00266206      -0.00101619       0.00169245
O       12.31600974       1.61483501      24.05085043  F       20       0.00085914       0.00829770       0.01377837
Sn       6.82570331       3.22967028      24.11991567  F       21       0.00367926       0.00205055      -0.02699490
Sn      10.23855358       1.61483508      23.99493530  F       22      -0.00774947       0.00100350       0.00808165
O       10.23855387       0.00000012      25.32920843  F       23       0.01135041       0.00054974       0.02393503
O        6.82876966       3.22956994      26.19191350  T       24      -0.00272324       0.00170066      -0.00027198
O        8.98835875       1.61400601      27.65396318  T       25       0.00012007       0.00068461      -0.00057419
O       11.49458693       1.61726001      27.65743316  T       26       0.00255367      -0.00083731       0.00073118
Sn      13.64816632       1.61226836      27.66061058  T       27       0.00086481      -0.00088341       0.00060683
Sn      10.24131696      -0.00200678      27.35747020  T       28      -0.00040144       0.00124250       0.00363809
O       13.69233774       3.23166972      28.85566092  T       29       0.00644609      -0.00379397      -0.00412852
O       13.65140459       6.45934050      12.43114757  F        0       0.00000449      -0.00000557       0.00179726
O        8.98526182       4.84450598      13.63952349  F        1      -0.01632690      -0.00000665      -0.00653157
O       11.49184604       4.84450595      13.63952293  F        2       0.01632684      -0.00000806      -0.00652513
Sn       6.82570277       4.84450527      13.63204828  F        3      -0.00000293       0.00000657      -0.00386667
Sn      10.23855408       3.22967091      13.93646918  F        4      -0.00000931       0.00000197      -0.00040114
O       13.65140490       6.45934046      15.10100240  F        5      -0.00006821      -0.00004726       0.00296384
O       10.23855422       3.22967052      15.96367047  F        6       0.00001737      -0.00002449       0.00351416
O        8.16109784       4.84450546      17.24202773  F        7      -0.00038847      -0.00005393      -0.00271112
O       12.31600959       4.84450547      17.24202843  F        8       0.00031653      -0.00016174      -0.00278451
Sn      13.65140454       6.45934061      17.17296284  F        9       0.00098951       0.00043845       0.02775377
Sn      10.23855368       4.84450535      17.29794302  F       10      -0.00001489       0.00021859      -0.01156362
O       10.23855403       3.22967040      18.57956262  F       11       0.00009856      -0.00010158       0.00273739
O       13.65140461       3.22967066      19.30782007  F       12      -0.00054484      -0.00069065       0.00447040
O        8.92151796       4.84450538      20.64643965  F       13      -0.00570233      -0.00063968      -0.00010395
O       11.55558952       4.84450536      20.64644013  F       14       0.00547002      -0.00127726      -0.00034525
Sn      13.65140462       4.84450573      20.64643955  F       15       0.00640677       0.00685220       0.00340716
Sn      10.23855365       6.45934047      20.64643991  F       16       0.00074250       0.00122377       0.00207539
O       13.65140461       3.22967047      21.98505885  F       17       0.00021610      -0.00360687      -0.00506710
O       10.23855359       6.45934065      22.71331588  F       18      -0.00175334      -0.00239876      -0.00620415
O        8.16109818       4.84450555      24.05084986  F       19      -0.00026055      -0.00263974      -0.00021128
O       12.31600974       4.84450537      24.05085043  F       20       0.00038943      -0.02030979       0.00672689
Sn       6.82570331       6.45934065      24.11991567  F       21       0.00603061       0.00260209      -0.02057417
Sn      10.23855358       4.84450545      23.99493530  F       22      -0.00111642       0.01102706       0.01367859
O       10.23855387       3.22967049      25.32920843  F       23       0.01008279       0.00135745       0.02110226
O        6.83002456       6.45952464      26.19247415  T       24      -0.00282742       0.00044981      -0.00024533
O        8.99203275       4.84829205      27.65767970  T       25       0.00050893       0.00089692      -0.00364786
O       11.50365104       4.84184395      27.65887964  T       26      -0.00015962      -0.00057204       0.00341868
Sn      13.66789680       4.85074844      27.65999799  T       27       0.00022431       0.00402951       0.00033808
Sn      10.23930629       3.23212210      27.35799459  T       28       0.00154550      -0.00022321      -0.00146127
O       13.69022593       6.46682877      28.85532078  T       29      -0.00285415       0.00383583       0.00058258
O       13.65140459       9.68901086      12.43114757  F        0      -0.00000268       0.00001708       0.00179422
O        8.98526182       8.07417635      13.63952349  F        1      -0.01633689      -0.00001180      -0.00654118
O       11.49184604       8.07417632      13.63952293  F        2       0.01633674      -0.00001016      -0.00653229
Sn       6.82570277       8.07417564      13.63204828  F        3       0.00000108       0.00000086      -0.00386357
Sn      10.23855408       6.45934127      13.93646918  F        4      -0.00000356       0.00000158      -0.00034785
O       13.65140490       9.68901082      15.10100240  F        5      -0.00012463      -0.00001991       0.00287843
O       10.23855422       6.45934088      15.96367047  F        6       0.00000672      -0.00002591       0.00343619
O        8.16109784       8.07417583      17.24202773  F        7      -0.00040047      -0.00002386      -0.00275351
O       12.31600959       8.07417583      17.24202843  F        8       0.00006232      -0.00009127      -0.00311784
Sn      13.65140454       9.68901097      17.17296284  F        9       0.00144530       0.00003339       0.02841818
Sn      10.23855368       8.07417571      17.29794302  F       10       0.00009306       0.00008383      -0.01122953
O       10.23855403       6.45934077      18.57956262  F       11       0.00000935      -0.00016371       0.00264000
O       13.65140461       6.45934102      19.30782007  F       12      -0.00235381      -0.00169577       0.00203537
O        8.92151796       8.07417575      20.64643965  F       13      -0.00620248      -0.00028441      -0.00060803
O       11.55558952       8.07417572      20.64644013  F       14       0.00510458      -0.00040754      -0.00163822
Sn      13.65140462       8.07417609      20.64643955  F       15       0.01265852       0.00189447       0.00846733
Sn      10.23855365       9.68901084      20.64643991  F       16       0.00118319      -0.00032549       0.00325748
O       13.65140461       6.45934083      21.98505885  F       17      -0.00353087      -0.00713858      -0.01160434
O       10.23855359       9.68901101      22.71331588  F       18      -0.00326316       0.00123726      -0.00784203
O        8.16109818       8.07417592      24.05084986  F       19      -0.00243919      -0.00002974      -0.00065069
O       12.31600974       8.07417574      24.05085043  F       20      -0.00605597      -0.00839104      -0.00760610
Sn       6.82570331       9.68901101      24.11991567  F       21       0.00596837      -0.00068184      -0.02039596
Sn      10.23855358       8.07417581      23.99493530  F       22       0.01232697       0.00372262       0.02184234
O       10.23855387       6.45934085      25.32920843  F       23       0.00023780      -0.01249713       0.00996357
O        6.82832645       9.68864101      26.19249325  T       24      -0.00104557      -0.00189200      -0.00058722
O        8.99861849       8.07525686      27.66272399  T       25      -0.00301468      -0.00034391      -0.00580988
O       11.51215306       8.07000890      27.64634103  T       26       0.00018448       0.00163546       0.00993440
Sn      13.68300518       8.07384935      27.64344364  T       27       0.00135729       0.00131857       0.00145182
Sn      10.25267983       6.46055989      27.35788259  T       28       0.00069575       0.00139627      -0.00260180
O       13.66830370       9.67711641      28.85770837  T       29       0.00852371      -0.00029158      -0.00003695
O       13.65140459      12.91868123      12.43114757  F        0      -0.00000457       0.00002024       0.00178045
O        8.98526182      11.30384671      13.63952349  F        1      -0.01634258       0.00000337      -0.00654116
O       11.49184604      11.30384668      13.63952293  F        2       0.01633799       0.00000263      -0.00653835
Sn       6.82570277      11.30384601      13.63204828  F        3      -0.00000342      -0.00002006      -0.00385568
Sn      10.23855408       9.68901164      13.93646918  F        4       0.00000024      -0.00000584      -0.00033146
O       13.65140490      12.91868119      15.10100240  F        5      -0.00008285       0.00005904       0.00291896
O       10.23855422       9.68901125      15.96367047  F        6      -0.00000598      -0.00000100       0.00341086
O        8.16109784      11.30384619      17.24202773  F        7      -0.00040284       0.00004574      -0.00275917
O       12.31600959      11.30384620      17.24202843  F        8       0.00008927       0.00011326      -0.00303002
Sn      13.65140454      12.91868134      17.17296284  F        9       0.00091894      -0.00047960       0.02725065
Sn      10.23855368      11.30384608      17.29794302  F       10       0.00011232      -0.00017098      -0.01130999
O       10.23855403       9.68901113      18.57956262  F       11      -0.00003410       0.00003277       0.00261373
O       13.65140461       9.68901139      19.30782007  F       12      -0.00317932       0.00056048       0.00140379
O        8.92151796      11.30384611      20.64643965  F       13      -0.00594384       0.00052265      -0.00038006
O       11.55558952      11.30384609      20.64644013  F       14       0.00483587       0.00085995      -0.00115891
Sn      13.65140462      11.30384646      20.64643955  F       15       0.01341233      -0.00455674       0.00900199
Sn      10.23855365      12.91868120      20.64643991  F       16       0.00042529      -0.00099643       0.00098110
O       13.65140461       9.68901120      21.98505885  F       17      -0.00603540       0.00189774      -0.01568195
O       10.23855359      12.91868138      22.71331588  F       18      -0.00139213       0.00205894      -0.00421309
O        8.16109818      11.30384628      24.05084986  F       19      -0.00215097       0.00109995      -0.00057964
O       12.31600974      11.30384610      24.05085043  F       20      -0.00531258       0.00969201      -0.00369708
Sn       6.82570331      12.91868138      24.11991567  F       21       0.00369886      -0.00263204      -0.02650751
Sn      10.23855358      11.30384618      23.99493530  F       22       0.00795898      -0.00847912       0.01951870
O       10.23855387       9.68901122      25.32920843  F       23       0.00103581       0.00110919       0.01020138
O        6.82812876      12.91825866      26.19187901  T       24      -0.00156654      -0.00135509      -0.00039816
O        8.99426158      11.29792281      27.65568835  T       25       0.00042576       0.00065001      -0.00144302
O       11.50655455      11.30417356      27.65911730  T       26       0.00041369      -0.00093547       0.00095154
Sn      13.67667024      11.29391489      27.66041593  T       27      -0.00151559      -0.00332677       0.00122151
Sn      10.25919313       9.68640872      27.35798084  T       28      -0.00375625      -0.00014771       0.00136530
O       13.68378573      12.91133048      28.85917845  T       29      -0.00443698       0.00210804      -0.00318092
O       13.65140459      16.14835159      12.43114757  F        0       0.00000150       0.00001555       0.00178474
O        8.98526182      14.53351708      13.63952349  F        1      -0.01634064       0.00001181      -0.00653185
O       11.49184604      14.53351705      13.63952293  F        2       0.01633847       0.00000717      -0.00652748
Sn       6.82570277      14.53351637      13.63204828  F        3       0.00000074      -0.00000686      -0.00385898
Sn      10.23855408      12.91868201      13.93646918  F        4       0.00000225      -0.00003305      -0.00035679
O       13.65140490      16.14835156      15.10100240  F        5       0.00000323       0.00005664       0.00304604
O       10.23855422      12.91868161      15.96367047  F        6      -0.00000893       0.00002900       0.00347157
O        8.16109784      14.53351656      17.24202773  F        7      -0.00038549       0.00004702      -0.00267393
O       12.31600959      14.53351656      17.24202843  F        8       0.00027744       0.00012437      -0.00275399
Sn      13.65140454      16.14835170      17.17296284  F        9       0.00004933      -0.00032743       0.02610566
Sn      10.23855368      14.53351644      17.29794302  F       10       0.00001402      -0.00019633      -0.01167132
O       10.23855403      12.91868150      18.57956262  F       11       0.00001328       0.00015946       0.00265411
O       13.65140461      12.91868175      19.30782007  F       12      -0.00209778       0.00091767       0.00252678
O        8.92151796      14.53351648      20.64643965  F       13      -0.00587674       0.00051007       0.00004124
O       11.55558952      14.53351646      20.64644013  F       14       0.00534885       0.00095072      -0.00015308
Sn      13.65140462      14.53351682      20.64643955  F       15       0.00443758      -0.00445142       0.00205634
Sn      10.23855365      16.14835157      20.64643991  F       16      -0.00012341      -0.00056625      -0.00123468
O       13.65140461      12.91868157      21.98505885  F       17      -0.00360434       0.00453659      -0.01080823
O       10.23855359      16.14835175      22.71331588  F       18       0.00161032       0.00123928      -0.00003266
O        8.16109818      14.53351665      24.05084986  F       19       0.00184843       0.00153197       0.00110117
O       12.31600974      14.53351647      24.05085043  F       20      -0.00194602       0.00662758       0.00920062
Sn       6.82570331      16.14835174      24.11991567  F       21       0.00253357      -0.00147202      -0.02857408
Sn      10.23855358      14.53351654      23.99493530  F       22      -0.00116089      -0.00744196       0.01166257
O       10.23855387      12.91868158      25.32920843  F       23       0.00454373      -0.00175657       0.01317371
O        6.82706552      16.14780687      26.19153728  T       24      -0.00043944       0.00122784       0.00074571
O        8.98926466      14.53060739      27.65496695  T       25       0.00369319      -0.00029414      -0.00302261
O       11.49653213      14.53023499      27.65668752  T       26       0.00130901       0.00304754       0.00111933
Sn      13.65360354      14.52779625      27.66046687  T       27      -0.00346001       0.00278506      -0.00324231
Sn      10.24408255      12.91350075      27.35780671  T       28       0.00180441       0.00001118       0.00073773
O       13.65486884      16.14516672      28.85970982  T       29       0.00214099       0.00060672       0.00104165
O       20.47710709       3.22967013      12.43114757  F        0       0.00000333       0.00000738       0.00187618
O       15.81096432       1.61483561      13.63952349  F        1      -0.01632419      -0.00000251      -0.00650036
O       18.31754854       1.61483559      13.63952293  F        2       0.01637235       0.00002032      -0.00650948
Sn      13.65140527       1.61483491      13.63204828  F        3      -0.00001256      -0.00001446      -0.00387779
Sn      17.06425658       0.00000054      13.93646918  F        4      -0.00001745      -0.00008542      -0.00038004
O       20.47710740       3.22967009      15.10100240  F        5       0.00001087      -0.00048330       0.00210762
O       17.06425672       0.00000015      15.96367047  F        6      -0.00014173       0.00020955       0.00344679
O       14.98680034       1.61483510      17.24202773  F        7      -0.00047295      -0.00006659      -0.00265095
O       19.14171209       1.61483510      17.24202843  F        8       0.00015099      -0.00057308      -0.00290012
Sn      20.47710704       3.22967024      17.17296284  F        9      -0.00004547       0.00307455       0.02849090
Sn      17.06425618       1.61483498      17.29794302  F       10      -0.00002611       0.00083841      -0.01091084
O       17.06425653       0.00000003      18.57956262  F       11      -0.00073907       0.00221581       0.00010542
O       20.47710711       0.00000029      19.30782007  F       12       0.00018920       0.00045454       0.00921895
O       15.74722046       1.61483502      20.64643965  F       13      -0.00468851       0.00163576       0.00142925
O       18.38129202       1.61483499      20.64644013  F       14       0.00618315      -0.00068184       0.00534837
Sn      20.47710712       1.61483536      20.64643955  F       15      -0.00074871       0.00055333      -0.03390474
Sn      17.06425615       3.22967011      20.64643991  F       16       0.00320386       0.01548606      -0.00929053
O       20.47710711       0.00000010      21.98505885  F       17       0.00075225       0.03571667       0.00245775
O       17.06425609       3.22967028      22.71331588  F       18       0.00991512      -0.03250074       0.02549634
O       14.98680068       1.61483519      24.05084986  F       19       0.01030141      -0.00196556       0.00238940
O       19.14171224       1.61483501      24.05085043  F       20       0.10293207       0.03321048       0.13067019
Sn      13.65140581       3.22967028      24.11991567  F       21       0.00650056       0.01740499      -0.04602252
Sn      17.06425608       1.61483508      23.99493530  F       22      -0.09764071      -0.02051984      -0.04832589
O       17.06425637       0.00000012      25.32920843  F       23       0.05108382       0.04024351       0.07834163
O       13.67109327       3.22825220      26.19270019  T       24      -0.00034122       0.00276622      -0.00151366
O       15.82075682       1.60068845      27.66444071  T       25       0.00375128       0.00813541      -0.00151609
O       18.34195327       1.62407381      27.63973172  T       26      -0.00377676       0.00316253       0.00127360
Sn      20.47521417       1.52318505      27.57529641  T       27       0.00303682       0.00322932      -0.01644243
Sn      17.06832790      -0.00927647      27.35636701  T       28       0.00496370       0.00042959      -0.00136858
O       20.37800268       3.23920939      28.83463616  T       29       0.00633720      -0.00035178       0.01238614
O       20.47710709       6.45934050      12.43114757  F        0       0.00000291      -0.00002514       0.00174630
O       15.81096432       4.84450598      13.63952349  F        1      -0.01634878      -0.00005763      -0.00658754
O       18.31754854       4.84450595      13.63952293  F        2       0.01638824      -0.00007230      -0.00664155
Sn      13.65140527       4.84450527      13.63204828  F        3      -0.00000196       0.00002401      -0.00386262
Sn      17.06425658       3.22967091      13.93646918  F        4       0.00002862       0.00006812      -0.00032324
O       20.47710740       6.45934046      15.10100240  F        5       0.00000415      -0.00064243       0.00167602
O       17.06425672       3.22967052      15.96367047  F        6      -0.00029725      -0.00035562       0.00285043
O       14.98680034       4.84450546      17.24202773  F        7      -0.00115909      -0.00040761      -0.00328020
O       19.14171209       4.84450547      17.24202843  F        8      -0.00038114      -0.00252493      -0.00461490
Sn      20.47710704       6.45934061      17.17296284  F        9      -0.00002809       0.00387298       0.04200545
Sn      17.06425618       4.84450535      17.29794302  F       10       0.00193504       0.00324510      -0.00641014
O       17.06425653       3.22967040      18.57956262  F       11      -0.00052633      -0.00263638       0.00020317
O       20.47710711       3.22967066      19.30782007  F       12       0.00016287      -0.00167511       0.00431174
O       15.74722046       4.84450538      20.64643965  F       13      -0.01093072      -0.00863000      -0.00240844
O       18.38129202       4.84450536      20.64644013  F       14      -0.00430590      -0.01822436      -0.00557125
Sn      20.47710712       4.84450573      20.64643955  F       15      -0.00039379       0.05832397       0.00417978
Sn      17.06425615       6.45934047      20.64643991  F       16       0.01506798       0.01988588       0.02851115
O       20.47710711       3.22967047      21.98505885  F       17      -0.00038429      -0.04185966       0.00952335
O       17.06425609       6.45934065      22.71331588  F       18      -0.00977410      -0.03633879      -0.01282734
O       14.98680068       4.84450555      24.05084986  F       19       0.00208439      -0.01219145       0.00595944
O       19.14171224       4.84450537      24.05085043  F       20      -0.03905505      -0.36203292       0.01596820
Sn      13.65140581       6.45934065      24.11991567  F       21       0.02205832       0.02576882      -0.06213318
Sn      17.06425608       4.84450545      23.99493530  F       22       0.01203486       0.09293807      -0.04328438
O       17.06425637       3.22967049      25.32920843  F       23       0.01969486      -0.06704882       0.00743121
O       13.64529401       6.45379118      26.18804457  T       24       0.00116581      -0.00650918       0.00398260
O       15.84283189       4.87025092      27.65359752  T       25      -0.01507759      -0.00086683       0.00261298
O       18.35677936       4.80490502      27.62018579  T       26      -0.00302787       0.00428484       0.00149688
Sn      20.47034249       4.89529505      27.43506891  T       27       0.00875965       0.01118165       0.01781042
Sn      17.03360539       3.22888030      27.35069688  T       28       0.00830980      -0.00647986       0.00325853
O       20.48478777       6.13183534      29.00541529  T       29       0.00088729      -0.01002127      -0.01274244
O       20.47710709       9.68901086      12.43114757  F        0       0.00000207       0.00001636       0.00166965
O       15.81096432       8.07417635      13.63952349  F        1      -0.01642749      -0.00004558      -0.00673285
O       18.31754854       8.07417632      13.63952293  F        2       0.01637584      -0.00005340      -0.00686619
Sn      13.65140527       8.07417564      13.63204828  F        3       0.00003498       0.00002089      -0.00382328
Sn      17.06425658       6.45934127      13.93646918  F        4       0.00014921       0.00013085       0.00043708
O       20.47710740       9.68901082      15.10100240  F        5      -0.00000498       0.00007778       0.00120628
O       17.06425672       6.45934088      15.96367047  F        6      -0.00075826      -0.00041679       0.00181885
O       14.98680034       8.07417583      17.24202773  F        7      -0.00170198      -0.00029377      -0.00404084
O       19.14171209       8.07417583      17.24202843  F        8      -0.00095272      -0.00116019      -0.00733087
Sn      20.47710704       9.68901097      17.17296284  F        9       0.00002509      -0.00084732       0.04800288
Sn      17.06425618       8.07417571      17.29794302  F       10       0.00429416       0.00154655      -0.00073246
O       17.06425653       6.45934077      18.57956262  F       11      -0.00252488      -0.00430522      -0.00483273
O       20.47710711       6.45934102      19.30782007  F       12       0.00013346       0.00144592      -0.01111855
O       15.74722046       8.07417575      20.64643965  F       13      -0.01914686      -0.00355132      -0.00747142
O       18.38129202       8.07417572      20.64644013  F       14      -0.01119431      -0.00743884      -0.00971831
Sn      20.47710712       8.07417609      20.64643955  F       15       0.00002893       0.02725264       0.05798900
Sn      17.06425615       9.68901084      20.64643991  F       16       0.02087850      -0.00370032       0.04854761
O       20.47710711       6.45934083      21.98505885  F       17       0.00056209      -0.06393737      -0.02840366
O       17.06425609       9.68901101      22.71331588  F       18      -0.02996578       0.00784187      -0.03111109
O       14.98680068       8.07417592      24.05084986  F       19      -0.03671819      -0.00960208      -0.00846749
O       19.14171224       8.07417574      24.05085043  F       20      -0.02033816      -0.03253851      -0.04751345
Sn      13.65140581       9.68901101      24.11991567  F       21       0.03205333      -0.00425102      -0.05023266
Sn      17.06425608       8.07417581      23.99493530  F       22       0.12346901       0.04645067       0.03479259
O       17.06425637       6.45934085      25.32920843  F       23       0.12055891       0.00399212       0.26794285
O       13.64040193       9.68749240      26.18782845  T       24      -0.00183276       0.01131918       0.00207752
O       15.85569524       8.07852036      27.56325906  T       25       0.00707287       0.00762485      -0.00146268
O       18.39059462       8.05589899      27.90165347  T       26       0.00799756      -0.00003495       0.00474083
Sn      20.48504497       8.06067684      28.82118278  T       27       0.00261261      -0.00665230       0.00774334
Sn      17.13401630       6.47422752      27.36738345  T       28       0.00773587      -0.00278413      -0.00106734
O       20.46828118       9.97326148      28.99984419  T       29       0.00036841      -0.00625268      -0.01288611
O       20.47710709      12.91868123      12.43114757  F        0       0.00000263       0.00002784       0.00174212
O       15.81096432      11.30384671      13.63952349  F        1      -0.01642382       0.00002933      -0.00673995
O       18.31754854      11.30384668      13.63952293  F        2       0.01638246       0.00003515      -0.00682230
Sn      13.65140527      11.30384601      13.63204828  F        3       0.00005384      -0.00001965      -0.00378129
Sn      17.06425658       9.68901164      13.93646918  F        4       0.00020574      -0.00000838       0.00083977
O       20.47710740      12.91868119      15.10100240  F        5      -0.00000390       0.00073459       0.00152880
O       17.06425672       9.68901125      15.96367047  F        6      -0.00090135       0.00004025       0.00134225
O       14.98680034      11.30384619      17.24202773  F        7      -0.00169535       0.00030343      -0.00381821
O       19.14171209      11.30384620      17.24202843  F        8      -0.00102687       0.00211074      -0.00694587
Sn      20.47710704      12.91868134      17.17296284  F        9       0.00000695      -0.00421979       0.03812566
Sn      17.06425618      11.30384608      17.29794302  F       10       0.00355841      -0.00253826      -0.00209179
O       17.06425653       9.68901113      18.57956262  F       11      -0.00328983       0.00105981      -0.00721401
O       20.47710711       9.68901139      19.30782007  F       12       0.00002705      -0.00391108      -0.02255580
O       15.74722046      11.30384611      20.64643965  F       13      -0.01853077       0.00498072      -0.00989017
O       18.38129202      11.30384609      20.64644013  F       14      -0.01304446       0.01253619      -0.01970724
Sn      20.47710712      11.30384646      20.64643955  F       15      -0.00010804      -0.03538048       0.07303047
Sn      17.06425615      12.91868120      20.64643991  F       16       0.01223940      -0.02021329       0.02991457
O       20.47710711       9.68901120      21.98505885  F       17      -0.00057071       0.02226282      -0.06369701
O       17.06425609      12.91868138      22.71331588  F       18      -0.02226999       0.04275446      -0.02434115
O       14.98680068      11.30384628      24.05084986  F       19      -0.02202843       0.00046907       0.00423850
O       19.14171224      11.30384610      24.05085043  F       20      -0.16222224       0.27017045      -0.13645546
Sn      13.65140581      12.91868138      24.11991567  F       21       0.02311573      -0.02509470      -0.02649139
Sn      17.06425608      11.30384618      23.99493530  F       22       0.12905413      -0.03672346      -0.00321134
O       17.06425637       9.68901122      25.32920843  F       23       0.09652411      -0.07535951       0.21306220
O       13.65751825      12.91802395      26.19171285  T       24      -0.00114428       0.00068370      -0.00121069
O       15.83360334      11.27525029      27.63682937  T       25      -0.00504380      -0.00621286      -0.00235122
O       18.34096080      11.32554575      27.65978380  T       26      -0.00383636      -0.00873125       0.00023291
Sn      20.47974580      11.31946670      27.49707322  T       27      -0.00904258      -0.00947908       0.00426000
Sn      17.14738624       9.67468199      27.36619543  T       28       0.00161806      -0.00246547       0.00566500
O       20.47916694      12.87373880      28.81395008  T       29       0.00031842       0.01637187       0.00758749
O       20.47710709      16.14835159      12.43114757  F        0       0.00000283       0.00003306       0.00180030
O       15.81096432      14.53351708      13.63952349  F        1      -0.01636481       0.00005605      -0.00659559
O       18.31754854      14.53351705      13.63952293  F        2       0.01635909       0.00004720      -0.00661707
Sn      13.65140527      14.53351637      13.63204828  F        3       0.00001860      -0.00002872      -0.00383013
Sn      17.06425658      12.91868201      13.93646918  F        4       0.00010159      -0.00014480       0.00032115
O       20.47710740      16.14835156      15.10100240  F        5       0.00000641       0.00036746       0.00245774
O       17.06425672      12.91868161      15.96367047  F        6      -0.00052668       0.00053283       0.00236371
O       14.98680034      14.53351656      17.24202773  F        7      -0.00077979       0.00047206      -0.00303103
O       19.14171209      14.53351656      17.24202843  F        8      -0.00021349       0.00213753      -0.00454494
Sn      20.47710704      16.14835170      17.17296284  F        9      -0.00004345      -0.00189688       0.02671152
Sn      17.06425618      14.53351644      17.29794302  F       10       0.00096865      -0.00311949      -0.00803685
O       17.06425653      12.91868150      18.57956262  F       11      -0.00193168       0.00363057      -0.00427170
O       20.47710711      12.91868175      19.30782007  F       12       0.00006473       0.00374588      -0.01072993
O       15.74722046      14.53351648      20.64643965  F       13      -0.00921660       0.00585505      -0.00261060
O       18.38129202      14.53351646      20.64644013  F       14       0.00187178       0.01418235      -0.00357861
Sn      20.47710712      14.53351682      20.64643955  F       15      -0.00030731      -0.05140857       0.01635847
Sn      17.06425615      16.14835157      20.64643991  F       16       0.00140299      -0.01130057      -0.00651062
O       20.47710711      12.91868157      21.98505885  F       17      -0.00022721       0.05251253      -0.05764296
O       17.06425609      16.14835175      22.71331588  F       18       0.01093613       0.02357051       0.01196083
O       14.98680068      14.53351665      24.05084986  F       19      -0.00805272       0.01826227      -0.00037459
O       19.14171224      14.53351647      24.05085043  F       20      -0.02472271       0.12866139      -0.01821551
Sn      13.65140581      16.14835174      24.11991567  F       21       0.00789421      -0.01511871      -0.03842478
Sn      17.06425608      14.53351654      23.99493530  F       22       0.00777607      -0.08175129      -0.01456464
O       17.06425637      12.91868158      25.32920843  F       23       0.00004313       0.06073233       0.01578641
O       13.65358716      16.15068915      26.19135882  T       24       0.00104984      -0.00249516       0.00193673
O       15.81130374      14.52989307      27.64484848  T       25      -0.00639939      -0.00398712       0.00219973
O       18.32452793      14.53229014      27.66812325  T       26      -0.01595786       0.00858942      -0.00334945
Sn      20.47576473      14.51834612      27.68320226  T       27       0.00207735      -0.00307834       0.00436577
Sn      17.05045043      12.90816174      27.35400515  T       28       0.00372707       0.00598152      -0.00054786
O       20.48286135      16.15697257      28.87826750  T       29      -0.00140287       0.00476128      -0.00259840
O       27.30280959       3.22967013      12.43114757  F        0      -0.00000088       0.00000825       0.00178367
O       22.63666682       1.61483561      13.63952349  F        1      -0.01635927       0.00002250      -0.00648739
O       25.14325104       1.61483559      13.63952293  F        2       0.01631093       0.00000043      -0.00646891
Sn      20.47710777       1.61483491      13.63204828  F        3      -0.00001083       0.00001819      -0.00387645
Sn      23.88995908       0.00000054      13.93646918  F        4       0.00001239      -0.00009890      -0.00045681
O       27.30280990       3.22967009      15.10100240  F        5      -0.00002281      -0.00001892       0.00311434
O       23.88995922       0.00000015      15.96367047  F        6       0.00016740       0.00022322       0.00356965
O       21.81250284       1.61483510      17.24202773  F        7       0.00000471      -0.00056334      -0.00283839
O       25.96741459       1.61483510      17.24202843  F        8       0.00042340      -0.00002232      -0.00249197
Sn      27.30280954       3.22967024      17.17296284  F        9      -0.00004981       0.00037206       0.02564837
Sn      23.88995868       1.61483498      17.29794302  F       10      -0.00012017       0.00079890      -0.01153177
O       23.88995902       0.00000003      18.57956262  F       11       0.00076672       0.00237408       0.00020145
O       27.30280961       0.00000029      19.30782007  F       12       0.00012278       0.00109144       0.00446270
O       22.57292296       1.61483502      20.64643965  F       13      -0.00510977      -0.00054388       0.00587232
O       25.20699452       1.61483499      20.64644013  F       14       0.00430335       0.00227940       0.00238612
Sn      27.30280962       1.61483536      20.64643955  F       15       0.00162133      -0.00052914      -0.00271265
Sn      23.88995865       3.22967011      20.64643991  F       16      -0.00364281       0.01576348      -0.01450999
O       27.30280961       0.00000010      21.98505885  F       17       0.00129313       0.00388168      -0.00225204
O       23.88995859       3.22967028      22.71331588  F       18      -0.00790001      -0.03289964       0.03333776
O       21.81250318       1.61483519      24.05084986  F       19      -0.08743044       0.04059544       0.14018682
O       25.96741474       1.61483501      24.05085043  F       20      -0.01871566      -0.00190193       0.00413022
Sn      20.47710831       3.22967028      24.11991567  F       21      -0.01237577       0.14726931      -0.52731162
Sn      23.88995858       1.61483508      23.99493530  F       22       0.10276072      -0.03766802      -0.07723674
O       23.88995887       0.00000012      25.32920843  F       23      -0.07509720       0.06720269       0.13039042
O       20.47704198       3.16372226      26.21968877  T       24      -0.00405464      -0.01713499      -0.00383012
O       22.61622008       1.63448416      27.68107960  T       25       0.00474522       0.00450443      -0.00985830
O       25.13630627       1.59534901      27.64956984  T       26      -0.00196910       0.00007538      -0.00184821
Sn      27.30834118       1.61090349      27.65782255  T       27       0.00332008       0.00056429      -0.00015676
Sn      23.87937678      -0.00994015      27.35891123  T       28       0.00334322      -0.00693011       0.00024223
O       27.24428016       3.23153840      28.85107294  T       29      -0.00248020      -0.00250657      -0.00131071
O       27.30280959       6.45934050      12.43114757  F        0       0.00000533      -0.00000429       0.00179845
O       22.63666682       4.84450598      13.63952349  F        1      -0.01637873      -0.00007791      -0.00662601
O       25.14325104       4.84450595      13.63952293  F        2       0.01633832      -0.00006062      -0.00655904
Sn      20.47710777       4.84450527      13.63204828  F        3      -0.00000750       0.00042608      -0.00318265
Sn      23.88995908       3.22967091      13.93646918  F        4      -0.00003642       0.00006962      -0.00042117
O       27.30280990       6.45934046      15.10100240  F        5       0.00005507      -0.00007479       0.00299925
O       23.88995922       3.22967052      15.96367047  F        6       0.00032508      -0.00036275       0.00298744
O       21.81250284       4.84450546      17.24202773  F        7       0.00051121      -0.00255247      -0.00458094
O       25.96741459       4.84450547      17.24202843  F        8       0.00111926      -0.00048214      -0.00314317
Sn      27.30280954       6.45934061      17.17296284  F        9      -0.00090859       0.00056280       0.02755325
Sn      23.88995868       4.84450535      17.29794302  F       10      -0.00205284       0.00342010      -0.00689633
O       23.88995902       3.22967040      18.57956262  F       11       0.00055632      -0.00270370       0.00002915
O       27.30280961       3.22967066      19.30782007  F       12       0.00046938      -0.00076654       0.00481408
O       22.57292296       4.84450538      20.64643965  F       13       0.00524922      -0.01856308      -0.00529854
O       25.20699452       4.84450536      20.64644013  F       14       0.01066938      -0.00963390      -0.00158099
Sn      27.30280962       4.84450573      20.64643955  F       15      -0.00574789       0.00735523       0.00255195
Sn      23.88995865       6.45934047      20.64643991  F       16      -0.01543477       0.02077977       0.02766112
O       27.30280961       3.22967047      21.98505885  F       17      -0.00114800      -0.00375604      -0.00477723
O       23.88995859       6.45934065      22.71331588  F       18       0.01172439      -0.03602669      -0.00842926
O       21.81250318       4.84450555      24.05084986  F       19       0.05785292      -0.38087898       0.01324920
O       25.96741474       4.84450537      24.05085043  F       20      -0.01045489      -0.01355673       0.00752299
Sn      20.47710831       6.45934065      24.11991567  F       21       0.00455812       0.27095535       0.05290762
Sn      23.88995858       4.84450545      23.99493530  F       22      -0.00953636       0.10808618      -0.07558611
O       23.88995887       3.22967049      25.32920843  F       23      -0.04570340      -0.06561700       0.04253659
O       20.49045456       6.40243371      26.14193275  T       24      -0.00243063       0.00305930       0.00125026
O       22.59447267       4.78610355      27.66979557  T       25       0.00960647       0.01093449      -0.01028325
O       25.11144552       4.87750008      27.63839124  T       26       0.01129639       0.00447717       0.00246532
Sn      27.28801003       4.85139440      27.65610011  T       27      -0.00450079       0.00543776       0.00193349
Sn      23.93474670       3.22879458      27.34924345  T       28       0.00205368      -0.01123771      -0.00016856
O       27.27286051       6.46491792      28.85471034  T       29      -0.00398241       0.00252651       0.00278342
O       27.30280959       9.68901086      12.43114757  F        0       0.00001180       0.00001845       0.00179309
O       22.63666682       8.07417635      13.63952349  F        1      -0.01637447      -0.00005605      -0.00686363
O       25.14325104       8.07417632      13.63952293  F        2       0.01641986      -0.00005031      -0.00672454
Sn      20.47710777       8.07417564      13.63204828  F        3      -0.00000300       0.00024558      -0.00233677
Sn      23.88995908       6.45934127      13.93646918  F        4      -0.00015757       0.00014069       0.00039053
O       27.30280990       9.68901082      15.10100240  F        5       0.00012178      -0.00002646       0.00287628
O       23.88995922       6.45934088      15.96367047  F        6       0.00077789      -0.00043669       0.00190863
O       21.81250284       8.07417583      17.24202773  F        7       0.00100926      -0.00117037      -0.00732534
O       25.96741459       8.07417583      17.24202843  F        8       0.00168307      -0.00036506      -0.00398226
Sn      27.30280954       9.68901097      17.17296284  F        9      -0.00139237       0.00006628       0.02844036
Sn      23.88995868       8.07417571      17.29794302  F       10      -0.00435927       0.00173100      -0.00088962
O       23.88995902       6.45934077      18.57956262  F       11       0.00255522      -0.00450640      -0.00479425
O       27.30280961       6.45934102      19.30782007  F       12       0.00228986      -0.00188497       0.00231351
O       22.57292296       8.07417575      20.64643965  F       13       0.01120342      -0.00762149      -0.00978384
O       25.20699452       8.07417572      20.64644013  F       14       0.01947530      -0.00363126      -0.00752629
Sn      27.30280962       8.07417609      20.64643955  F       15      -0.01255475       0.00254428       0.00813476
Sn      23.88995865       9.68901084      20.64643991  F       16      -0.02095840      -0.00348057       0.04932082
O       27.30280961       6.45934083      21.98505885  F       17       0.00365411      -0.00755964      -0.01094844
O       23.88995859       9.68901101      22.71331588  F       18       0.03073198       0.00948286      -0.03207476
O       21.81250318       8.07417592      24.05084986  F       19       0.02362366      -0.02633015      -0.05857114
O       25.96741474       8.07417574      24.05085043  F       20       0.03140937      -0.01360079      -0.00644628
Sn      20.47710831       9.68901101      24.11991567  F       21       0.00398315       0.01746957       0.46151856
Sn      23.88995858       8.07417581      23.99493530  F       22      -0.13379061       0.05912235       0.02809559
O       23.88995887       6.45934085      25.32920843  F       23      -0.14434139      -0.03524868       0.32038474
O       20.47846611       9.80495160      26.15579262  T       24      -0.00512828       0.01246998       0.01766892
O       22.55496015       8.05773988      27.88041910  T       25      -0.00822362       0.00699381       0.00354254
O       25.09138827       8.07039272      27.57339127  T       26      -0.00033116       0.01545280      -0.00424143
Sn      27.26756324       8.07300020      27.64435057  T       27       0.00295192      -0.00012599       0.00136498
Sn      23.80282312       6.47122313      27.36923896  T       28       0.00115459       0.00124104       0.00394610
O       27.27590999       9.67674854      28.85784162  T       29      -0.00233324      -0.00123431      -0.00138569
O       27.30280959      12.91868123      12.43114757  F        0       0.00001236       0.00002044       0.00177932
O       22.63666682      11.30384671      13.63952349  F        1      -0.01638219       0.00003699      -0.00682819
O       25.14325104      11.30384668      13.63952293  F        2       0.01642188       0.00003442      -0.00673854
Sn      20.47710777      11.30384601      13.63204828  F        3      -0.00000145      -0.00034223      -0.00250050
Sn      23.88995908       9.68901164      13.93646918  F        4      -0.00020706      -0.00000836       0.00085300
O       27.30280990      12.91868119      15.10100240  F        5       0.00007564       0.00007415       0.00292563
O       23.88995922       9.68901125      15.96367047  F        6       0.00090006       0.00002355       0.00136375
O       21.81250284      11.30384619      17.24202773  F        7       0.00103515       0.00211964      -0.00693639
O       25.96741459      11.30384620      17.24202843  F        8       0.00169012       0.00031730      -0.00381062
Sn      27.30280954      12.91868134      17.17296284  F        9      -0.00084912      -0.00056544       0.02719422
Sn      23.88995868      11.30384608      17.29794302  F       10      -0.00359196      -0.00261535      -0.00217310
O       23.88995902       9.68901113      18.57956262  F       11       0.00330060       0.00098530      -0.00704155
O       27.30280961       9.68901139      19.30782007  F       12       0.00311155       0.00046918       0.00148481
O       22.57292296      11.30384611      20.64643965  F       13       0.01302602       0.01269191      -0.01976753
O       25.20699452      11.30384609      20.64644013  F       14       0.01860224       0.00519553      -0.00999301
Sn      27.30280962      11.30384646      20.64643955  F       15      -0.01358431      -0.00478642       0.00882667
Sn      23.88995865      12.91868120      20.64643991  F       16      -0.01241323      -0.02101502       0.02991697
O       27.30280961       9.68901120      21.98505885  F       17       0.00592076       0.00182980      -0.01558610
O       23.88995859      12.91868138      22.71331588  F       18       0.02286072       0.04151801      -0.02426986
O       21.81250318      11.30384628      24.05084986  F       19       0.16488941       0.27348709      -0.13713029
O       25.96741474      11.30384610      24.05085043  F       20       0.02315772       0.00099199       0.00370792
Sn      20.47710831      12.91868138      24.11991567  F       21       0.00098051      -0.19018744      -0.33369792
Sn      23.88995858      11.30384618      23.99493530  F       22      -0.12723257      -0.03829391      -0.00545450
O       23.88995887       9.68901122      25.32920843  F       23      -0.08767717      -0.07695632       0.21695328
O       20.47767401      12.99712979      26.17005470  T       24       0.00081095      -0.00982726      -0.01690847
O       22.61747398      11.32195191      27.66546679  T       25      -0.00060126      -0.00052481      -0.00052550
O       25.12316021      11.27571791      27.63264138  T       26       0.00601697      -0.00415759      -0.00183971
Sn      27.27810566      11.29375456      27.66021988  T       27       0.00400317      -0.00367019       0.00051898
Sn      23.81157716       9.67246260      27.36638443  T       28      -0.00531756       0.00556039      -0.00106069
O       27.27656626      12.91129629      28.85908085  T       29      -0.00496325       0.00237116      -0.00337225
O       27.30280959      16.14835159      12.43114757  F        0       0.00000415       0.00001584       0.00178593
O       22.63666682      14.53351708      13.63952349  F        1      -0.01635310       0.00005308      -0.00660983
O       25.14325104      14.53351705      13.63952293  F        2       0.01635459       0.00006296      -0.00657968
Sn      20.47710777      14.53351637      13.63204828  F        3      -0.00000589      -0.00036646      -0.00348261
Sn      23.88995908      12.91868201      13.93646918  F        4      -0.00010162      -0.00016101       0.00031608
O       27.30280990      16.14835156      15.10100240  F        5      -0.00002122       0.00008148       0.00309592
O       23.88995922      12.91868161      15.96367047  F        6       0.00052929       0.00055877       0.00239831
O       21.81250284      14.53351656      17.24202773  F        7       0.00030427       0.00216844      -0.00451254
O       25.96741459      14.53351656      17.24202843  F        8       0.00074230       0.00055129      -0.00292917
Sn      27.30280954      16.14835170      17.17296284  F        9       0.00006181      -0.00043330       0.02577768
Sn      23.88995868      14.53351644      17.29794302  F       10      -0.00105464      -0.00335789      -0.00839065
O       23.88995902      12.91868150      18.57956262  F       11       0.00194675       0.00381904      -0.00411413
O       27.30280961      12.91868175      19.30782007  F       12       0.00199800       0.00111928       0.00265413
O       22.57292296      14.53351648      20.64643965  F       13      -0.00164574       0.01447711      -0.00356714
O       25.20699452      14.53351646      20.64644013  F       14       0.00941528       0.00611777      -0.00258570
Sn      27.30280962      14.53351682      20.64643955  F       15      -0.00394631      -0.00509410       0.00158744
Sn      23.88995865      16.14835157      20.64643991  F       16      -0.00176835      -0.01194120      -0.00824868
O       27.30280961      12.91868157      21.98505885  F       17       0.00359253       0.00468312      -0.01070118
O       23.88995859      16.14835175      22.71331588  F       18      -0.00972237       0.02448414       0.01660780
O       21.81250318      14.53351665      24.05084986  F       19       0.02909531       0.12647665      -0.02269163
O       25.96741474      14.53351647      24.05085043  F       20       0.00324878       0.02246051       0.00240763
Sn      20.47710831      16.14835174      24.11991567  F       21      -0.00211993      -0.24432445      -0.41594794
Sn      23.88995858      14.53351654      23.99493530  F       22      -0.01467457      -0.09102523      -0.02139885
O       23.88995887      12.91868158      25.32920843  F       23      -0.00188583       0.06006555       0.02093919
O       20.48329152      16.11084943      26.18570551  T       24      -0.00153660       0.00638904      -0.00417566
O       22.62796039      14.53097872      27.66650011  T       25       0.01944789       0.00599384      -0.00327242
O       25.14039894      14.53170217      27.64876611  T       26       0.00901669      -0.01453760       0.00131856
Sn      27.29970535      14.52804309      27.66063497  T       27       0.00458796       0.00207433      -0.00290146
Sn      23.90481175      12.90784752      27.35405333  T       28      -0.00479610       0.00097976       0.00118765
O       27.29716801      16.14582122      28.85940525  T       29       0.00053543       0.00295591       0.00039309
O       34.12851209       3.22967013      12.43114757  F        0      -0.00000187       0.00000503       0.00177991
O       29.46236932       1.61483561      13.63952349  F        1      -0.01633093      -0.00000377      -0.00651438
O       31.96895354       1.61483559      13.63952293  F        2       0.01632804      -0.00000380      -0.00651799
Sn      27.30281027       1.61483491      13.63204828  F        3       0.00001047      -0.00002259      -0.00391316
Sn      30.71566158       0.00000054      13.93646918  F        4       0.00000642      -0.00002607      -0.00042421
O       34.12851240       3.22967009      15.10100240  F        5      -0.00000189       0.00000192       0.00305086
O       30.71566172       0.00000015      15.96367047  F        6      -0.00001714       0.00003596       0.00353286
O       28.63820534       1.61483510      17.24202773  F        7      -0.00046879       0.00005221      -0.00248248
O       32.79311709       1.61483510      17.24202843  F        8       0.00037301      -0.00001142      -0.00263405
Sn      34.12851204       3.22967024      17.17296284  F        9       0.00002208       0.00006112       0.02617520
Sn      30.71566118       1.61483498      17.29794302  F       10       0.00012807       0.00001778      -0.01193821
O       30.71566152       0.00000003      18.57956262  F       11      -0.00009778       0.00015932       0.00275420
O       34.12851211       0.00000029      19.30782007  F       12      -0.00002358       0.00010258       0.00426942
O       29.39862546       1.61483502      20.64643965  F       13      -0.00613468       0.00006612       0.00054314
O       32.03269702       1.61483499      20.64644013  F       14       0.00556283       0.00007504       0.00036808
Sn      34.12851212       1.61483536      20.64643955  F       15       0.00022995       0.00008529      -0.00033466
Sn      30.71566115       3.22967011      20.64643991  F       16       0.00089780       0.00069586      -0.00137843
O       34.12851211       0.00000010      21.98505885  F       17       0.00014974       0.00039444      -0.00385910
O       30.71566109       3.22967028      22.71331588  F       18      -0.00099609      -0.00116257      -0.00079497
O       28.63820568       1.61483519      24.05084986  F       19      -0.00069086       0.00779191       0.01335334
O       32.79311724       1.61483501      24.05085043  F       20      -0.00306123      -0.00033350       0.00197907
Sn      27.30281081       3.22967028      24.11991567  F       21       0.00150402       0.01732288      -0.06495788
Sn      30.71566108       1.61483508      23.99493530  F       22       0.00784249      -0.00054894       0.00657400
O       30.71566137       0.00000012      25.32920843  F       23      -0.01099210       0.00394095       0.02693173
O       27.28300523       3.22811330      26.19113480  T       24       0.00215692       0.00317355      -0.00208652
O       29.46096577       1.61866620      27.65813421  T       25      -0.00187972      -0.00087957       0.00222460
O       31.96719569       1.61335489      27.65471205  T       26      -0.00135615       0.00137480      -0.00290067
Sn      34.12796628       1.61459059      27.66098904  T       27      -0.00528053       0.00136791      -0.00018960
Sn      30.71341119      -0.00212798      27.35759055  T       28      -0.00004026       0.00186797       0.00308341
O       34.11964490       3.23006448      28.86085457  T       29       0.00288449       0.00208928      -0.00007373
O       34.12851209       6.45934050      12.43114757  F        0      -0.00000132      -0.00000112       0.00178820
O       29.46236932       4.84450598      13.63952349  F        1      -0.01632309      -0.00000748      -0.00652301
O       31.96895354       4.84450595      13.63952293  F        2       0.01632148      -0.00000750      -0.00652453
Sn      27.30281027       4.84450527      13.63204828  F        3      -0.00000128       0.00003267      -0.00389659
Sn      30.71566158       3.22967091      13.93646918  F        4       0.00000979       0.00000151      -0.00042117
O       34.12851240       6.45934046      15.10100240  F        5       0.00000265      -0.00001389       0.00302768
O       30.71566172       3.22967052      15.96367047  F        6      -0.00004405      -0.00002700       0.00354892
O       28.63820534       4.84450546      17.24202773  F        7      -0.00035989      -0.00021935      -0.00266789
O       32.79311709       4.84450547      17.24202843  F        8       0.00038055      -0.00006724      -0.00270049
Sn      34.12851204       6.45934061      17.17296284  F        9      -0.00001156       0.00009133       0.02644353
Sn      30.71566118       4.84450535      17.29794302  F       10       0.00006049       0.00026729      -0.01167676
O       30.71566152       3.22967040      18.57956262  F       11      -0.00017996      -0.00011231       0.00286734
O       34.12851211       3.22967066      19.30782007  F       12      -0.00003606      -0.00018023       0.00424365
O       29.39862546       4.84450538      20.64643965  F       13      -0.00575131      -0.00145814      -0.00030782
O       32.03269702       4.84450536      20.64644013  F       14       0.00558663      -0.00081445       0.00001670
Sn      34.12851212       4.84450573      20.64643955  F       15      -0.00000922       0.00070958       0.00006792
Sn      30.71566115       6.45934047      20.64643991  F       16      -0.00055491       0.00152246       0.00196498
O       34.12851211       3.22967047      21.98505885  F       17       0.00001953      -0.00040348      -0.00411000
O       30.71566109       6.45934065      22.71331588  F       18       0.00193560      -0.00265615      -0.00604357
O       28.63820568       4.84450555      24.05084986  F       19      -0.00068605      -0.01797466       0.00751427
O       32.79311724       4.84450537      24.05085043  F       20       0.00020792      -0.00185649       0.00079034
Sn      27.30281081       6.45934065      24.11991567  F       21      -0.02104945       0.02901752      -0.06671634
Sn      30.71566108       4.84450545      23.99493530  F       22       0.00135789       0.01281499       0.01265110
O       30.71566137       3.22967049      25.32920843  F       23      -0.00807019      -0.00060777       0.01795104
O       27.30912272       6.45497941      26.18755357  T       24       0.00259347      -0.00764760       0.00319964
O       29.45088583       4.83943096      27.65783079  T       25      -0.00208843       0.00050707       0.00519772
O       31.96223446       4.85082086      27.65664943  T       26       0.00031042      -0.00102674      -0.00123329
Sn      34.12533366       4.84610909      27.66185171  T       27      -0.00005506       0.00074693      -0.00117785
Sn      30.71894953       3.23223906      27.35772460  T       28      -0.00361739       0.00136871      -0.00146133
O       34.12632607       6.46011390      28.86316662  T       29       0.00237153       0.00020789      -0.00322723
O       34.12851209       9.68901086      12.43114757  F        0      -0.00000154       0.00002020       0.00179201
O       29.46236932       8.07417635      13.63952349  F        1      -0.01633668      -0.00001003      -0.00653592
O       31.96895354       8.07417632      13.63952293  F        2       0.01633838      -0.00000976      -0.00653965
Sn      27.30281027       8.07417564      13.63204828  F        3      -0.00004222       0.00002649      -0.00382799
Sn      30.71566158       6.45934127      13.93646918  F        4       0.00000316       0.00000261      -0.00035059
O       34.12851240       9.68901082      15.10100240  F        5       0.00000577       0.00000618       0.00301421
O       30.71566172       6.45934088      15.96367047  F        6      -0.00002177      -0.00004235       0.00344720
O       28.63820534       8.07417583      17.24202773  F        7      -0.00007683      -0.00014961      -0.00307254
O       32.79311709       8.07417583      17.24202843  F        8       0.00040846      -0.00002278      -0.00276472
Sn      34.12851204       9.68901097      17.17296284  F        9      -0.00002548      -0.00001976       0.02655910
Sn      30.71566118       8.07417571      17.29794302  F       10      -0.00011662       0.00012959      -0.01124527
O       30.71566152       6.45934077      18.57956262  F       11      -0.00006141      -0.00024465       0.00272582
O       34.12851211       6.45934102      19.30782007  F       12      -0.00000385      -0.00019272       0.00403163
O       29.39862546       8.07417575      20.64643965  F       13      -0.00528205      -0.00061669      -0.00152806
O       32.03269702       8.07417572      20.64644013  F       14       0.00620167      -0.00030214      -0.00052469
Sn      34.12851212       8.07417609      20.64643955  F       15      -0.00025583       0.00039481       0.00070933
Sn      30.71566115       9.68901084      20.64643991  F       16      -0.00114542      -0.00021668       0.00313828
O       34.12851211       6.45934083      21.98505885  F       17       0.00044934      -0.00065373      -0.00427956
O       30.71566109       9.68901101      22.71331588  F       18       0.00319260       0.00125647      -0.00788976
O       28.63820568       8.07417592      24.05084986  F       19       0.00599642      -0.00689683      -0.00887901
O       32.79311724       8.07417574      24.05085043  F       20       0.00282477      -0.00156710       0.00001381
Sn      27.30281081       9.68901101      24.11991567  F       21      -0.03236331      -0.00480107      -0.04919404
Sn      30.71566108       8.07417581      23.99493530  F       22      -0.01338586       0.00412966       0.02166042
O       30.71566137       6.45934085      25.32920843  F       23      -0.00278847      -0.01172740       0.01363933
O       27.31179698       9.68644249      26.18813274  T       24       0.00011072       0.00915227       0.00191700
O       29.44062812       8.07221972      27.64615367  T       25       0.00165614      -0.00104729       0.01064827
O       31.95549953       8.07425372      27.66317458  T       26       0.00300345       0.00091576      -0.00598332
Sn      34.12085604       8.07478453      27.66278125  T       27       0.00481034      -0.00028156      -0.00208333
Sn      30.69801714       6.46155469      27.35802132  T       28       0.00288996      -0.00101425      -0.00204664
O       34.12600422       9.68933351      28.86298929  T       29       0.00143000      -0.00174815      -0.00067532
O       34.12851209      12.91868123      12.43114757  F        0      -0.00000027       0.00001780       0.00177908
O       29.46236932      11.30384671      13.63952349  F        1      -0.01633781       0.00000719      -0.00654051
O       31.96895354      11.30384668      13.63952293  F        2       0.01634094       0.00000554      -0.00653995
Sn      27.30281027      11.30384601      13.63204828  F        3      -0.00006516      -0.00001952      -0.00377238
Sn      30.71566158       9.68901164      13.93646918  F        4      -0.00000397      -0.00001089      -0.00032181
O       34.12851240      12.91868119      15.10100240  F        5      -0.00000067       0.00001981       0.00302780
O       30.71566172       9.68901125      15.96367047  F        6       0.00000653      -0.00000499       0.00339693
O       28.63820534      11.30384619      17.24202773  F        7      -0.00007033       0.00012740      -0.00303005
O       32.79311709      11.30384620      17.24202843  F        8       0.00042434       0.00004708      -0.00277316
Sn      34.12851204      12.91868134      17.17296284  F        9      -0.00001252      -0.00008733       0.02637208
Sn      30.71566118      11.30384608      17.29794302  F       10      -0.00014742      -0.00018227      -0.01128617
O       30.71566152       9.68901113      18.57956262  F       11       0.00002733       0.00001695       0.00261154
O       34.12851211       9.68901139      19.30782007  F       12       0.00003495       0.00004522       0.00391060
O       29.39862546      11.30384611      20.64643965  F       13      -0.00492612       0.00088935      -0.00109386
O       32.03269702      11.30384609      20.64644013  F       14       0.00600931       0.00048448      -0.00038260
Sn      34.12851212      11.30384646      20.64643955  F       15      -0.00036210      -0.00047944       0.00069191
Sn      30.71566115      12.91868120      20.64643991  F       16      -0.00031715      -0.00112357       0.00100411
O       34.12851211       9.68901120      21.98505885  F       17       0.00049698       0.00004678      -0.00461471
O       30.71566109      12.91868138      22.71331588  F       18       0.00127523       0.00167940      -0.00414029
O       28.63820568      11.30384628      24.05084986  F       19       0.00407106       0.00836137      -0.00105407
O       32.79311724      11.30384610      24.05085043  F       20       0.00259924       0.00146774      -0.00063783
Sn      27.30281081      12.91868138      24.11991567  F       21      -0.02250938      -0.02492318      -0.02766778
Sn      30.71566108      11.30384618      23.99493530  F       22      -0.00690432      -0.00829169       0.01973151
O       30.71566137       9.68901122      25.32920843  F       23       0.00099778       0.00172508       0.00770679
O       27.29623254      12.91846093      26.19171767  T       24      -0.00081811       0.00105406      -0.00137401
O       29.44799032      11.30267345      27.65854414  T       25      -0.00109854       0.00129612       0.00193498
O       31.96054122      11.29904893      27.65638255  T       26      -0.00261772      -0.00147994      -0.00243692
Sn      34.12374154      11.30331925      27.66185444  T       27      -0.00229911      -0.00278171      -0.00267294
Sn      30.69743569       9.68640084      27.35790442  T       28      -0.00043936      -0.00100290       0.00153750
O       34.12312533      12.91848412      28.86176903  T       29       0.00277600      -0.00342260      -0.00017196
O       34.12851209      16.14835159      12.43114757  F        0      -0.00000202       0.00000686       0.00178397
O       29.46236932      14.53351708      13.63952349  F        1      -0.01633099       0.00001085      -0.00652961
O       31.96895354      14.53351705      13.63952293  F        2       0.01633486       0.00000976      -0.00652733
Sn      27.30281027      14.53351637      13.63204828  F        3      -0.00002381      -0.00003988      -0.00384107
Sn      30.71566158      12.91868201      13.93646918  F        4      -0.00000560      -0.00003482      -0.00035447
O       34.12851240      16.14835156      15.10100240  F        5      -0.00000519       0.00001409       0.00305474
O       30.71566172      12.91868161      15.96367047  F        6       0.00000892       0.00003869       0.00345606
O       28.63820534      14.53351656      17.24202773  F        7      -0.00030582       0.00019781      -0.00268107
O       32.79311709      14.53351656      17.24202843  F        8       0.00039203       0.00005872      -0.00268023
Sn      34.12851204      16.14835170      17.17296284  F        9       0.00002098      -0.00004585       0.02612780
Sn      30.71566118      14.53351644      17.29794302  F       10      -0.00002400      -0.00023727      -0.01169280
O       30.71566152      12.91868150      18.57956262  F       11      -0.00002518       0.00018679       0.00266214
O       34.12851211      12.91868175      19.30782007  F       12       0.00002698       0.00022575       0.00405553
O       29.39862546      14.53351648      20.64643965  F       13      -0.00562871       0.00118523      -0.00009634
O       32.03269702      14.53351646      20.64644013  F       14       0.00589122       0.00056495       0.00009249
Sn      34.12851212      14.53351682      20.64643955  F       15       0.00001026      -0.00071014       0.00006692
Sn      30.71566115      16.14835157      20.64643991  F       16       0.00037074      -0.00091181      -0.00136188
O       34.12851211      12.91868157      21.98505885  F       17       0.00027791       0.00064628      -0.00447510
O       30.71566109      16.14835175      22.71331588  F       18      -0.00152346       0.00158049       0.00013997
O       28.63820568      14.53351665      24.05084986  F       19       0.00258577       0.00455482       0.00674332
O       32.79311724      14.53351647      24.05085043  F       20      -0.00171919       0.00208456       0.00114850
Sn      27.30281081      16.14835174      24.11991567  F       21      -0.00325299      -0.01795387      -0.04248494
Sn      30.71566108      14.53351654      23.99493530  F       22       0.00023941      -0.00826378       0.01173280
O       30.71566137      12.91868158      25.32920843  F       23      -0.00554461      -0.00251241       0.01685929
O       27.30344673      16.14974107      26.19086070  T       24      -0.00085652      -0.00077676       0.00236684
O       29.45741377      14.53097342      27.65619148  T       25      -0.00015861       0.00195488       0.00221391
O       31.96512559      14.53041736      27.65523029  T       26      -0.00481832      -0.00043740      -0.00306173
Sn      34.12632355      14.53290509      27.66084144  T       27      -0.00608596      -0.00148082       0.00072670
Sn      30.70927511      12.91367535      27.35802373  T       28      -0.00179949      -0.00044190       0.00063753
O       34.12340018      16.14792191      28.86126005  T       29       0.00375705       0.00025640       0.00010681
O       19.47776077       8.04731738      30.83788945  T        0      -0.00164258       0.00418681      -0.00582634
O       21.70114386       8.06485698      30.80971231  T        0      -0.00578177      -0.00226531      -0.00630587
C       20.59838035       8.12007016      32.98054997  T        0       0.00395604       0.00038951      -0.00344506
C       20.60335971       8.08024209      31.46389629  T        0      -0.01044174      -0.00351412       0.00475287
H       19.84982907       8.83771325      33.33853263  T        0       0.00085454       0.00002363      -0.00074282
H       20.30825950       7.13707245      33.37823590  T        0       0.00103212      -0.00338225       0.00190656
H       21.59215871       8.37647942      33.36089783  T        0       0.00831979      -0.00207173       0.00212631
H       21.00629685       3.30661056      29.57428102  T        0       0.01110139       0.00457982       0.00080606
