758
Lattice="34.12851249988762 0.0 0.0 0.0 16.14835182838364 0.0 0.0 0.0 41.29287865270102" Properties=species:S:1:pos:R:3:move_mask:L:1:spacegroup_kinds:I:1:forces:R:3 spacegroup="P 1" unit_cell=conventional occupancy="_JSON {\"0\": {\"O\": 1.0}, \"1\": {\"O\": 1.0}, \"2\": {\"O\": 1.0}, \"3\": {\"Sn\": 1.0}, \"4\": {\"Sn\": 1.0}, \"5\": {\"O\": 1.0}, \"6\": {\"O\": 1.0}, \"7\": {\"O\": 1.0}, \"8\": {\"O\": 1.0}, \"9\": {\"Sn\": 1.0}, \"10\": {\"Sn\": 1.0}, \"11\": {\"O\": 1.0}, \"12\": {\"O\": 1.0}, \"13\": {\"O\": 1.0}, \"14\": {\"O\": 1.0}, \"15\": {\"Sn\": 1.0}, \"16\": {\"Sn\": 1.0}, \"17\": {\"O\": 1.0}, \"18\": {\"O\": 1.0}, \"19\": {\"O\": 1.0}, \"20\": {\"O\": 1.0}, \"21\": {\"Sn\": 1.0}, \"22\": {\"Sn\": 1.0}, \"23\": {\"O\": 1.0}, \"24\": {\"O\": 1.0}, \"25\": {\"O\": 1.0}, \"26\": {\"O\": 1.0}, \"27\": {\"Sn\": 1.0}, \"28\": {\"Sn\": 1.0}, \"29\": {\"O\": 1.0}}" energy=-4686.673828125 free_energy=-4686.673828125 stress="-0.0011756231542676687 3.2692746572138276e-06 -1.8939649635285605e-06 3.2692746572138276e-06 0.007701017893850803 4.675883701565908e-06 -1.8939649635285605e-06 4.675883701565908e-06 -4.6164390369085595e-05" pbc="T T T"
O        6.82570209       3.22967013      12.43114757  F        0       0.00000460       0.00001140       0.00178242
O        2.15955932       1.61483561      13.63952349  F        1      -0.01634148      -0.00000714      -0.00652425
O        4.66614354       1.61483559      13.63952293  F        2       0.01633337      -0.00000784      -0.00652096
Sn       0.00000027       1.61483491      13.63204828  F        3       0.00001142       0.00000055      -0.00386572
Sn       3.41285158       0.00000054      13.93646918  F        4      -0.00000554      -0.00001323      -0.00042218
O        6.82570240       3.22967009      15.10100240  F        5      -0.00001668       0.00001699       0.00306481
O        3.41285172       0.00000015      15.96367047  F        6       0.00001255       0.00000106       0.00355847
O        1.33539534       1.61483510      17.24202773  F        7      -0.00035466       0.00000111      -0.00264399
O        5.49030709       1.61483510      17.24202843  F        8       0.00034256      -0.00002900      -0.00263543
Sn       6.82570204       3.22967024      17.17296284  F        9       0.00007057      -0.00001325       0.02613358
Sn       3.41285118       1.61483498      17.29794302  F       10      -0.00003648       0.00001400      -0.01187389
O        3.41285153       0.00000003      18.57956262  F       11       0.00005162      -0.00006019       0.00292642
O        6.82570211       0.00000029      19.30782007  F       12       0.00005329      -0.00024963       0.00453613
O        2.09581546       1.61483502      20.64643965  F       13      -0.00566507      -0.00008426       0.00032229
O        4.72988702       1.61483499      20.64644013  F       14       0.00602507      -0.00017597       0.00036853
Sn       6.82570212       1.61483536      20.64643955  F       15       0.00061753       0.00077931      -0.00097680
Sn       3.41285115       3.22967011      20.64643991  F       16      -0.00025564      -0.00013294      -0.00117255
O        6.82570211       0.00000010      21.98505885  F       17       0.00011859      -0.00096533      -0.00215429
O        3.41285109       3.22967028      22.71331588  F       18       0.00054760      -0.00058311      -0.00126471
O        1.33539568       1.61483519      24.05084986  F       19       0.00085236       0.00049601       0.00340374
O        5.49030724       1.61483501      24.05085043  F       20       0.00135428      -0.00051273       0.00523763
Sn       0.00000081       3.22967028      24.11991567  F       21      -0.00192303      -0.00016871      -0.02617851
Sn       3.41285108       1.61483508      23.99493530  F       22      -0.00212762       0.00151798       0.00984556
O        3.41285137       0.00000012      25.32920843  F       23       0.00443242       0.00320618       0.01431003
O       -0.00005358       3.23196049      26.19188283  T       24      -0.00000631      -0.00027449       0.00204903
O        2.15956327       1.61875215      27.65371180  T       25       0.00453734      -0.00107738       0.00076912
O        4.66773792       1.61912197      27.65541586  T       26      -0.00146791      -0.00504440       0.00039681
Sn       6.82617940       1.62039811      27.66141027  T       27      -0.00350381      -0.00711382       0.00312364
Sn       3.41412785       0.00387204      27.35724273  T       28      -0.00147368      -0.00289058       0.00074184
O        6.82721903       3.23604453      28.86132067  T       29       0.00654692      -0.00048823      -0.00003296
O        6.82570209       6.45934050      12.43114757  F        0       0.00000821       0.00000030       0.00180238
O        2.15955932       4.84450598      13.63952349  F        1      -0.01633456       0.00000065      -0.00652196
O        4.66614354       4.84450595      13.63952293  F        2       0.01632944       0.00000080      -0.00652012
Sn       0.00000027       4.84450527      13.63204828  F        3       0.00001246       0.00000483      -0.00387949
Sn       3.41285158       3.22967091      13.93646918  F        4      -0.00000523      -0.00000634      -0.00041264
O        6.82570240       6.45934046      15.10100240  F        5       0.00001030       0.00003450       0.00311190
O        3.41285172       3.22967052      15.96367047  F        6       0.00000295      -0.00000624       0.00356252
O        1.33539534       4.84450546      17.24202773  F        7      -0.00034708       0.00002377      -0.00262873
O        5.49030709       4.84450547      17.24202843  F        8       0.00036815       0.00005307      -0.00261003
Sn       6.82570204       6.45934061      17.17296284  F        9      -0.00011758      -0.00022032       0.02583584
Sn       3.41285118       4.84450535      17.29794302  F       10      -0.00001263      -0.00006280      -0.01194549
O        3.41285153       3.22967040      18.57956262  F       11       0.00002131       0.00001757       0.00290884
O        6.82570211       3.22967066      19.30782007  F       12      -0.00017633      -0.00013652       0.00444466
O        2.09581546       4.84450538      20.64643965  F       13      -0.00571657       0.00019721       0.00033515
O        4.72988702       4.84450536      20.64644013  F       14       0.00611855       0.00025745       0.00045615
Sn       6.82570212       4.84450573      20.64643955  F       15       0.00049459      -0.00116567      -0.00226211
Sn       3.41285115       6.45934047      20.64643991  F       16      -0.00051932      -0.00060769      -0.00205597
O        6.82570211       3.22967047      21.98505885  F       17      -0.00044013       0.00053790      -0.00250384
O        3.41285109       6.45934065      22.71331588  F       18       0.00147664       0.00033060       0.00026939
O        1.33539568       4.84450555      24.05084986  F       19       0.00158034       0.00213433       0.00368024
O        5.49030724       4.84450537      24.05085043  F       20       0.00373180       0.00860795       0.00868996
Sn       0.00000081       6.45934065      24.11991567  F       21      -0.00233429      -0.00070519      -0.02794425
Sn       3.41285108       4.84450545      23.99493530  F       22      -0.00243173      -0.00328653       0.00798380
O        3.41285137       3.22967049      25.32920843  F       23       0.00136808       0.00926554       0.01097673
O        0.00052527       6.46178821      26.19185607  T       24       0.00148163      -0.00215329      -0.00101489
O        2.16024602       4.84916693      27.65676041  T       25       0.00323880      -0.00365915      -0.00137760
O        4.66963405       4.84985121      27.65185746  T       26      -0.00269812      -0.00054955       0.00242351
Sn       6.82862204       4.84924718      27.65929632  T       27       0.00071809      -0.00592456       0.00240439
Sn       3.41361267       3.23429760      27.35713892  T       28      -0.00229602      -0.00526595      -0.00030911
O        6.83478150       6.46507692      28.85978528  T       29       0.00406072      -0.00814511       0.00213170
O        6.82570209       9.68901086      12.43114757  F        0       0.00000988       0.00001835       0.00180757
O        2.15955932       8.07417635      13.63952349  F        1      -0.01634273      -0.00001113      -0.00651590
O        4.66614354       8.07417632      13.63952293  F        2       0.01633286      -0.00000895      -0.00651030
Sn       0.00000027       8.07417564      13.63204828  F        3       0.00000240      -0.00000257      -0.00389582
Sn       3.41285158       6.45934127      13.93646918  F        4      -0.00000234      -0.00001502      -0.00042814
O        6.82570240       9.68901082      15.10100240  F        5       0.00003938       0.00002090       0.00315720
O        3.41285172       6.45934088      15.96367047  F        6       0.00000941       0.00000758       0.00359224
O        1.33539534       8.07417583      17.24202773  F        7      -0.00034159       0.00001979      -0.00259633
O        5.49030709       8.07417583      17.24202843  F        8       0.00044364       0.00006239      -0.00252195
Sn       6.82570204       9.68901097      17.17296284  F        9      -0.00041254      -0.00010651       0.02531956
Sn       3.41285118       8.07417571      17.29794302  F       10      -0.00008028      -0.00004981      -0.01210687
O        3.41285153       6.45934077      18.57956262  F       11       0.00003201       0.00008933       0.00293406
O        6.82570211       6.45934102      19.30782007  F       12       0.00025237       0.00071896       0.00490998
O        2.09581546       8.07417575      20.64643965  F       13      -0.00549392       0.00024618       0.00054070
O        4.72988702       8.07417572      20.64644013  F       14       0.00643961       0.00049802       0.00110061
Sn       6.82570212       8.07417609      20.64643955  F       15      -0.00342539      -0.00218748      -0.00566762
Sn       3.41285115       9.68901084      20.64643991  F       16      -0.00100568      -0.00011347      -0.00315658
O        6.82570211       6.45934083      21.98505885  F       17       0.00102347       0.00335837       0.00115184
O        3.41285109       9.68901101      22.71331588  F       18       0.00239264      -0.00038056       0.00174416
O        1.33539568       8.07417592      24.05084986  F       19       0.00285785       0.00270870       0.00403835
O        5.49030724       8.07417574      24.05085043  F       20       0.00532755       0.00931729       0.01238299
Sn       0.00000081       9.68901101      24.11991567  F       21      -0.00413125       0.00017551      -0.03014773
Sn       3.41285108       8.07417581      23.99493530  F       22      -0.00882992      -0.00397710       0.00287088
O        3.41285137       6.45934085      25.32920843  F       23       0.00507306       0.01398321       0.01012228
O       -0.00060448       9.69123295      26.19168765  T       24       0.00354195      -0.00067888      -0.00045896
O        2.15954376       8.07702060      27.65483361  T       25      -0.00285986      -0.00279185       0.00117915
O        4.66826587       8.08099329      27.65594882  T       26       0.00294331      -0.00449781       0.00076882
Sn       6.82496761       8.07707338      27.65907736  T       27       0.00377592       0.00033802       0.00129560
Sn       3.41410501       6.46350762      27.35683921  T       28       0.00003764      -0.00233144       0.00288421
O        6.85829110       9.69332177      28.85697349  T       29       0.00077335      -0.00266681      -0.00074172
O        6.82570209      12.91868123      12.43114757  F        0       0.00000983       0.00001503       0.00178981
O        2.15955932      11.30384671      13.63952349  F        1      -0.01634499       0.00000174      -0.00651877
O        4.66614354      11.30384668      13.63952293  F        2       0.01633751       0.00000459      -0.00651111
Sn       0.00000027      11.30384601      13.63204828  F        3       0.00000428      -0.00000903      -0.00388199
Sn       3.41285158       9.68901164      13.93646918  F        4      -0.00000641      -0.00000905      -0.00044680
O        6.82570240      12.91868119      15.10100240  F        5       0.00004196      -0.00002251       0.00315166
O        3.41285172       9.68901125      15.96367047  F        6       0.00002360      -0.00000374       0.00361833
O        1.33539534      11.30384619      17.24202773  F        7      -0.00034663      -0.00001659      -0.00258566
O        5.49030709      11.30384620      17.24202843  F        8       0.00050290      -0.00000927      -0.00246596
Sn       6.82570204      12.91868134      17.17296284  F        9      -0.00035524       0.00020407       0.02542831
Sn       3.41285118      11.30384608      17.29794302  F       10      -0.00011312       0.00004440      -0.01214373
O        3.41285153       9.68901113      18.57956262  F       11       0.00008354       0.00001460       0.00299461
O        6.82570211       9.68901139      19.30782007  F       12       0.00088519       0.00014972       0.00614386
O        2.09581546      11.30384611      20.64643965  F       13      -0.00544196      -0.00019452       0.00060232
O        4.72988702      11.30384609      20.64644013  F       14       0.00648675      -0.00034519       0.00117295
Sn       6.82570212      11.30384646      20.64643955  F       15      -0.00425956       0.00148544      -0.00600953
Sn       3.41285115      12.91868120      20.64643991  F       16      -0.00074133       0.00058856      -0.00261310
O        6.82570211       9.68901120      21.98505885  F       17       0.00243069       0.00075844       0.00210546
O        3.41285109      12.91868138      22.71331588  F       18       0.00165101      -0.00156282       0.00087943
O        1.33539568      11.30384628      24.05084986  F       19       0.00309627       0.00082886       0.00444845
O        5.49030724      11.30384610      24.05085043  F       20       0.00626628      -0.00456134       0.01514224
Sn       0.00000081      12.91868138      24.11991567  F       21      -0.00378500       0.00090772      -0.02912116
Sn       3.41285108      11.30384618      23.99493530  F       22      -0.01008448       0.00259451       0.00233907
O        3.41285137       9.68901122      25.32920843  F       23       0.00732318       0.00880325       0.00961857
O       -0.00092304      12.92073014      26.19161479  T       24       0.00260101      -0.00133180       0.00356412
O        2.15929633      11.30818434      27.65415774  T       25      -0.00125840       0.00006709       0.00116785
O        4.66823694      11.30609093      27.65744112  T       26      -0.00015047      -0.00376005      -0.00096052
Sn       6.82459387      11.30912934      27.65919878  T       27      -0.00605764      -0.00148885       0.00132233
Sn       3.40989767       9.69296276      27.35671192  T       28      -0.00384216      -0.00258329       0.00486702
O        6.84424821      12.92239259      28.86001909  T       29      -0.00170314      -0.00234072      -0.00207168
O        6.82570209      16.14835159      12.43114757  F        0       0.00000296       0.00000917       0.00178790
O        2.15955932      14.53351708      13.63952349  F        1      -0.01633692       0.00000657      -0.00652350
O        4.66614354      14.53351705      13.63952293  F        2       0.01633602       0.00000418      -0.00651909
Sn       0.00000027      14.53351637      13.63204828  F        3       0.00001118       0.00000736      -0.00386691
Sn       3.41285158      12.91868201      13.93646918  F        4      -0.00000232      -0.00002561      -0.00043315
O        6.82570240      16.14835156      15.10100240  F        5      -0.00000874      -0.00000870       0.00308043
O        3.41285172      12.91868161      15.96367047  F        6       0.00002448      -0.00000156       0.00359787
O        1.33539534      14.53351656      17.24202773  F        7      -0.00034797      -0.00001970      -0.00261540
O        5.49030709      14.53351656      17.24202843  F        8       0.00043578      -0.00007716      -0.00251152
Sn       6.82570204      16.14835170      17.17296284  F        9      -0.00004521       0.00014225       0.02588764
Sn       3.41285118      14.53351644      17.29794302  F       10      -0.00007062       0.00008422      -0.01200086
O        3.41285153      12.91868150      18.57956262  F       11       0.00007438      -0.00008352       0.00296820
O        6.82570211      12.91868175      19.30782007  F       12       0.00057545      -0.00052420       0.00510773
O        2.09581546      14.53351648      20.64643965  F       13      -0.00558271      -0.00030344       0.00045421
O        4.72988702      14.53351646      20.64644013  F       14       0.00619640      -0.00038878       0.00054495
Sn       6.82570212      14.53351682      20.64643955  F       15      -0.00135514       0.00167474      -0.00290608
Sn       3.41285115      16.14835157      20.64643991  F       16      -0.00039753       0.00044198      -0.00150699
O        6.82570211      12.91868157      21.98505885  F       17       0.00186297      -0.00244243       0.00156808
O        3.41285109      16.14835175      22.71331588  F       18       0.00051606      -0.00093521      -0.00072660
O        1.33539568      14.53351665      24.05084986  F       19       0.00200117       0.00050863       0.00433870
O        5.49030724      14.53351647      24.05085043  F       20       0.00351654      -0.00604114       0.00986786
Sn       0.00000081      16.14835174      24.11991567  F       21      -0.00246580       0.00082485      -0.02389280
Sn       3.41285108      14.53351654      23.99493530  F       22      -0.00352497       0.00362530       0.00678777
O        3.41285137      12.91868158      25.32920843  F       23       0.00732947       0.00162044       0.01630780
O       -0.00073674      16.15047294      26.19219560  T       24       0.00010600      -0.00100467      -0.00254023
O        2.15993802      14.53749543      27.65465542  T       25       0.00377578      -0.00017137      -0.00034327
O        4.66882632      14.53519651      27.65618400  T       26       0.00064182       0.00272710      -0.00140527
Sn       6.82786927      14.53874461      27.66135485  T       27      -0.00895205       0.00031319      -0.00083062
Sn       3.41296905      12.92247088      27.35729979  T       28      -0.00360050      -0.00147113      -0.00070322
O        6.82938207      16.15322316      28.86174540  T       29       0.00374684      -0.00085874      -0.00089782
O       13.65140459       3.22967013      12.43114757  F        0      -0.00001964       0.00001051       0.00175953
O        8.98526182       1.61483561      13.63952349  F        1      -0.01633936      -0.00001101      -0.00653799
O       11.49184604       1.61483559      13.63952293  F        2       0.01634988      -0.00000940      -0.00652267
Sn       6.82570277       1.61483491      13.63204828  F        3       0.00000128      -0.00000427      -0.00387019
Sn      10.23855408       0.00000054      13.93646918  F        4      -0.00004344       0.00003315      -0.00046027
O       13.65140490       3.22967009      15.10100240  F        5      -0.00023288      -0.00020959       0.00265896
O       10.23855422       0.00000015      15.96367047  F        6       0.00014562      -0.00017834       0.00369081
O        8.16109784       1.61483510      17.24202773  F        7      -0.00039767      -0.00007469      -0.00260205
O       12.31600959       1.61483510      17.24202843  F        8      -0.00003655      -0.00072240      -0.00313370
Sn      13.65140454       3.22967024      17.17296284  F        9       0.00165679       0.00122585       0.02865034
Sn      10.23855368       1.61483498      17.29794302  F       10       0.00002032       0.00047890      -0.01178247
O       10.23855403       0.00000003      18.57956262  F       11       0.00029505      -0.00096007       0.00353384
O       13.65140461       0.00000029      19.30782007  F       12      -0.00199158      -0.00169593       0.00377100
O        8.92151796       1.61483502      20.64643965  F       13      -0.00676235      -0.00141619      -0.00063159
O       11.55558952       1.61483499      20.64644013  F       14       0.00449602      -0.00311486      -0.00039575
Sn      13.65140462       1.61483536      20.64643955  F       15       0.00605787       0.01101429      -0.00456103
Sn      10.23855365       3.22967011      20.64643991  F       16       0.00045793      -0.00006152       0.00187984
O       13.65140461       0.00000010      21.98505885  F       17      -0.00254724      -0.00994222       0.00685825
O       10.23855359       3.22967028      22.71331588  F       18      -0.00077312      -0.00407754       0.00195202
O        8.16109818       1.61483519      24.05084986  F       19      -0.00123091      -0.00151374       0.00631215
O       12.31600974       1.61483501      24.05085043  F       20       0.02228156      -0.01387573       0.02343937
Sn       6.82570331       3.22967028      24.11991567  F       21      -0.00212536      -0.00326750      -0.03566641
Sn      10.23855358       1.61483508      23.99493530  F       22      -0.00839625       0.00983959      -0.00904803
O       10.23855387       0.00000012      25.32920843  F       23       0.01781385      -0.00934618       0.02236089
O        6.82488787       3.23246229      26.19153797  T       24       0.00183202       0.00043854      -0.00100404
O        8.98553273       1.61908124      27.65048851  T       25       0.00479609      -0.00014479       0.00160542
O       11.49770500       1.61534337      27.65338238  T       26       0.00571528       0.00049712       0.00277661
Sn      13.65821390       1.61914350      27.66349924  T       27      -0.00184219       0.00267861       0.00128102
Sn      10.23962670       0.00655078      27.35574923  T       28       0.00071433      -0.00490310      -0.00344867
O       13.64293062       3.21882932      28.88578630  T       29       0.00388003      -0.00197966       0.00323629
O       13.65140459       6.45934050      12.43114757  F        0      -0.00003771       0.00000754       0.00184721
O        8.98526182       4.84450598      13.63952349  F        1      -0.01632500       0.00001506      -0.00652770
O       11.49184604       4.84450595      13.63952293  F        2       0.01635709       0.00002820      -0.00651986
Sn       6.82570277       4.84450527      13.63204828  F        3      -0.00001027      -0.00000820      -0.00390214
Sn      10.23855408       3.22967091      13.93646918  F        4       0.00000232      -0.00001834      -0.00031090
O       13.65140490       6.45934046      15.10100240  F        5      -0.00040163       0.00005426       0.00257862
O       10.23855422       3.22967052      15.96367047  F        6      -0.00004455      -0.00004245       0.00343692
O        8.16109784       4.84450546      17.24202773  F        7      -0.00042637       0.00011987      -0.00266154
O       12.31600959       4.84450547      17.24202843  F        8      -0.00045128       0.00004328      -0.00349732
Sn      13.65140454       6.45934061      17.17296284  F        9       0.00241740      -0.00039709       0.02640615
Sn      10.23855368       4.84450535      17.29794302  F       10       0.00059448      -0.00054467      -0.01162994
O       10.23855403       3.22967040      18.57956262  F       11      -0.00024360      -0.00004633       0.00273718
O       13.65140461       3.22967066      19.30782007  F       12      -0.00276353       0.00099658       0.00111448
O        8.92151796       4.84450538      20.64643965  F       13      -0.00575796       0.00184628       0.00177332
O       11.55558952       4.84450536      20.64644013  F       14       0.00543495       0.00334453       0.00142146
Sn      13.65140462       4.84450573      20.64643955  F       15       0.01425160      -0.01389748      -0.00718110
Sn      10.23855365       6.45934047      20.64643991  F       16      -0.00179616      -0.00872993      -0.01445287
O       13.65140461       3.22967047      21.98505885  F       17      -0.00574114      -0.01088700      -0.01355495
O       10.23855359       6.45934065      22.71331588  F       18       0.01525770       0.01926371       0.02101493
O        8.16109818       4.84450555      24.05084986  F       19       0.00484456       0.00881363       0.00568503
O       12.31600974       4.84450537      24.05085043  F       20      -0.03565629      -0.03221491      -0.03593987
Sn       6.82570331       6.45934065      24.11991567  F       21      -0.00674261      -0.01214101      -0.04677452
Sn      10.23855358       4.84450545      23.99493530  F       22       0.01455181      -0.04134271      -0.01819810
O       10.23855387       3.22967049      25.32920843  F       23       0.02335964       0.01472935       0.03839721
O        6.82882750       6.46565792      26.19164551  T       24      -0.00189609      -0.00498335      -0.00205171
O        8.99084668       4.84616421      27.64234354  T       25       0.00209802       0.00604539       0.00002737
O       11.50353401       4.84563219      27.67791476  T       26       0.00217590       0.00423857       0.00130343
Sn      13.66854534       4.81944566      27.67912800  T       27       0.00563435       0.00671376      -0.01354179
Sn      10.24251078       3.23013812      27.35684482  T       28      -0.00530217      -0.00112882       0.00535965
O       13.68288269       6.48822533      28.83714421  T       29      -0.00203409      -0.00128283      -0.00491357
O       13.65140459       9.68901086      12.43114757  F        0      -0.00003518       0.00002537       0.00191599
O        8.98526182       8.07417635      13.63952349  F        1      -0.01630917       0.00000741      -0.00647052
O       11.49184604       8.07417632      13.63952293  F        2       0.01638469       0.00001915      -0.00646804
Sn       6.82570277       8.07417564      13.63204828  F        3      -0.00003271      -0.00001369      -0.00395229
Sn      10.23855408       6.45934127      13.93646918  F        4       0.00003418      -0.00004268      -0.00042790
O       13.65140490       9.68901082      15.10100240  F        5      -0.00039043       0.00030179       0.00263733
O       10.23855422       6.45934088      15.96367047  F        6      -0.00018074       0.00003086       0.00337446
O        8.16109784       8.07417583      17.24202773  F        7      -0.00029817       0.00012743      -0.00240164
O       12.31600959       8.07417583      17.24202843  F        8      -0.00046471       0.00042905      -0.00224779
Sn      13.65140454       9.68901097      17.17296284  F        9       0.00232333      -0.00154929       0.02313980
Sn      10.23855368       8.07417571      17.29794302  F       10       0.00048330      -0.00068100      -0.01341372
O       10.23855403       6.45934077      18.57956262  F       11       0.00001824       0.00148339       0.00365575
O       13.65140461       6.45934102      19.30782007  F       12      -0.00363240       0.00006550       0.00820504
O        8.92151796       8.07417575      20.64643965  F       13      -0.00259677       0.00373232       0.00514994
O       11.55558952       8.07417572      20.64644013  F       14       0.00872205       0.00533547       0.00987368
Sn      13.65140462       8.07417609      20.64643955  F       15       0.02313987      -0.02214786      -0.04534706
Sn      10.23855365       9.68901084      20.64643991  F       16      -0.00522307      -0.00240705      -0.03266359
O       13.65140461       6.45934083      21.98505885  F       17      -0.01654964       0.02036411      -0.00268798
O       10.23855359       9.68901101      22.71331588  F       18       0.02835084       0.00282044       0.05241871
O        8.16109818       8.07417592      24.05084986  F       19       0.02308220       0.01095013       0.00923218
O       12.31600974       8.07417574      24.05085043  F       20       0.07705225       0.13169126       0.12218499
Sn       6.82570331       9.68901101      24.11991567  F       21      -0.01747150      -0.00209166      -0.06009444
Sn      10.23855358       8.07417581      23.99493530  F       22      -0.08465938      -0.05404371      -0.04939403
O       10.23855387       6.45934085      25.32920843  F       23       0.04585712       0.05473123       0.11006401
O        6.83637191       9.69126205      26.19225377  T       24       0.00173963      -0.00131020      -0.00356823
O        9.00534760       8.06651935      27.65559937  T       25       0.00673413       0.00179586       0.00027415
O       11.52954175       8.09709052      27.66198649  T       26      -0.00960730      -0.00462142      -0.01000211
Sn      13.67097134       7.99742820      27.52348595  T       27       0.02059856      -0.00051975       0.00600911
Sn      10.25692853       6.45589474      27.35803494  T       28      -0.00175654       0.00366612       0.00778925
O       13.66130024       9.67662211      28.89301478  T       29      -0.00704142      -0.00486138       0.00822377
O       13.65140459      12.91868123      12.43114757  F        0      -0.00001762       0.00000995       0.00185317
O        8.98526182      11.30384671      13.63952349  F        1      -0.01630023      -0.00000113      -0.00643370
O       11.49184604      11.30384668      13.63952293  F        2       0.01637879      -0.00001841      -0.00641143
Sn       6.82570277      11.30384601      13.63204828  F        3      -0.00003895      -0.00000563      -0.00395408
Sn      10.23855408       9.68901164      13.93646918  F        4       0.00001326      -0.00003403      -0.00068033
O       13.65140490      12.91868119      15.10100240  F        5      -0.00021359       0.00010980       0.00312877
O       10.23855422       9.68901125      15.96367047  F        6      -0.00009262       0.00016720       0.00343812
O        8.16109784      11.30384619      17.24202773  F        7      -0.00011696       0.00006609      -0.00229535
O       12.31600959      11.30384620      17.24202843  F        8      -0.00010362       0.00075072      -0.00192106
Sn      13.65140454      12.91868134      17.17296284  F        9       0.00152730      -0.00046835       0.02252881
Sn      10.23855368      11.30384608      17.29794302  F       10      -0.00041412      -0.00033191      -0.01435398
O       10.23855403       9.68901113      18.57956262  F       11       0.00063647       0.00061827       0.00579037
O       13.65140461       9.68901139      19.30782007  F       12      -0.00342494       0.00039794       0.01123505
O        8.92151796      11.30384611      20.64643965  F       13      -0.00125700      -0.00238891       0.00590781
O       11.55558952      11.30384609      20.64644013  F       14       0.00955486      -0.00110275       0.01071563
Sn      13.65140462      11.30384646      20.64643955  F       15       0.01286408       0.00825109      -0.05553103
Sn      10.23855365      12.91868120      20.64643991  F       16      -0.00600136       0.00613887      -0.01950550
O       13.65140461       9.68901120      21.98505885  F       17      -0.01553730       0.01488787       0.03893022
O       10.23855359      12.91868138      22.71331588  F       18       0.01899889      -0.01320846       0.02464933
O        8.16109818      11.30384628      24.05084986  F       19       0.02333781      -0.00577079       0.00870095
O       12.31600974      11.30384610      24.05085043  F       20       0.08791510      -0.07064964       0.11806265
Sn       6.82570331      12.91868138      24.11991567  F       21      -0.00907991       0.01225961      -0.04668881
Sn      10.23855358      11.30384618      23.99493530  F       22      -0.09769575       0.03915302      -0.06136069
O       10.23855387       9.68901122      25.32920843  F       23       0.03506104       0.01326371       0.06332289
O        6.83157702      12.91834222      26.19180574  T       24      -0.00471140      -0.00109826       0.00344163
O        9.00167538      11.31241613      27.65313640  T       25       0.00840628       0.00140592      -0.00248141
O       11.52581650      11.29049887      27.66935327  T       26      -0.00632496       0.00296611      -0.00268690
Sn      13.66326946      11.38178171      27.56165341  T       27      -0.00210539      -0.00373819      -0.00465859
Sn      10.22977648       9.69055728      27.35442164  T       28       0.01420221       0.00143456       0.00251636
O       13.65383955      12.90831571      28.85829031  T       29       0.00033434       0.00443517      -0.00221634
O       13.65140459      16.14835159      12.43114757  F        0      -0.00000758       0.00000651       0.00178123
O        8.98526182      14.53351708      13.63952349  F        1      -0.01631498      -0.00002104      -0.00648273
O       11.49184604      14.53351705      13.63952293  F        2       0.01635310      -0.00003077      -0.00644834
Sn       6.82570277      14.53351637      13.63204828  F        3      -0.00001483       0.00001006      -0.00390419
Sn      10.23855408      12.91868201      13.93646918  F        4      -0.00004968       0.00000102      -0.00073057
O       13.65140490      16.14835156      15.10100240  F        5      -0.00010804      -0.00021991       0.00306386
O       10.23855422      12.91868161      15.96367047  F        6       0.00010701       0.00002062       0.00396158
O        8.16109784      14.53351656      17.24202773  F        7      -0.00015177      -0.00023427      -0.00242133
O       12.31600959      14.53351656      17.24202843  F        8       0.00023255      -0.00049370      -0.00253440
Sn      13.65140454      16.14835170      17.17296284  F        9       0.00102367       0.00119074       0.02570288
Sn      10.23855368      14.53351644      17.29794302  F       10      -0.00063373       0.00109952      -0.01312868
O       10.23855403      12.91868150      18.57956262  F       11       0.00050589      -0.00111234       0.00473711
O       13.65140461      12.91868175      19.30782007  F       12      -0.00253252       0.00027136       0.01258113
O        8.92151796      14.53351648      20.64643965  F       13      -0.00381118      -0.00189522       0.00297380
O       11.55558952      14.53351646      20.64644013  F       14       0.00895441      -0.00459819       0.00479939
Sn      13.65140462      14.53351682      20.64643955  F       15       0.00535378       0.01686686      -0.02333688
Sn      10.23855365      16.14835157      20.64643991  F       16      -0.00182093       0.00518398      -0.00385009
O       13.65140461      12.91868157      21.98505885  F       17      -0.00498408      -0.01496590       0.01851221
O       10.23855359      16.14835175      22.71331588  F       18       0.00434520      -0.00676125       0.00464699
O        8.16109818      14.53351665      24.05084986  F       19       0.00828715      -0.00610188       0.00570919
O       12.31600974      14.53351647      24.05085043  F       20       0.00850666      -0.01940058       0.01741941
Sn       6.82570331      16.14835174      24.11991567  F       21      -0.00359016       0.00630736      -0.03103399
Sn      10.23855358      14.53351654      23.99493530  F       22      -0.02294043       0.04660187      -0.02339644
O       10.23855387      12.91868158      25.32920843  F       23       0.06288643      -0.04942077       0.13324413
O        6.82566574      16.14897732      26.19235838  T       24       0.00335277       0.00090494      -0.00505680
O        8.99158782      14.53893570      27.64975905  T       25      -0.00005746       0.00400720       0.00158668
O       11.50585042      14.53424911      27.65457020  T       26      -0.00545469      -0.00219772       0.00050005
Sn      13.65697937      14.56492181      27.67876231  T       27      -0.00136886      -0.00880495       0.00270823
Sn      10.24619087      12.92602352      27.35923005  T       28       0.01501310      -0.00775047       0.00720164
O       13.65735629      16.16476761      28.88304569  T       29       0.00002226      -0.00278005      -0.00313449
O       20.47710709       3.22967013      12.43114757  F        0       0.00002281      -0.00000035       0.00173044
O       15.81096432       1.61483561      13.63952349  F        1      -0.01641822      -0.00007995      -0.00670800
O       18.31754854       1.61483559      13.63952293  F        2       0.01639199      -0.00008019      -0.00673392
Sn      13.65140527       1.61483491      13.63204828  F        3       0.00007476       0.00010464      -0.00377062
Sn      17.06425658       0.00000054      13.93646918  F        4       0.00006051       0.00004835      -0.00002444
O       20.47710740       3.22967009      15.10100240  F        5       0.00022191      -0.00036986       0.00211698
O       17.06425672       0.00000015      15.96367047  F        6      -0.00028036      -0.00021567       0.00274947
O       14.98680034       1.61483510      17.24202773  F        7      -0.00148578      -0.00098768      -0.00366244
O       19.14171209       1.61483510      17.24202843  F        8       0.00094806      -0.00094655      -0.00423812
Sn      20.47710704       3.22967024      17.17296284  F        9      -0.00143146       0.00199829       0.03133288
Sn      17.06425618       1.61483498      17.29794302  F       10       0.00062016       0.00328333      -0.00591482
O       17.06425653       0.00000003      18.57956262  F       11      -0.00077292      -0.00113979      -0.00119472
O       20.47710711       0.00000029      19.30782007  F       12       0.00162890      -0.00038850       0.00135623
O       15.74722046       1.61483502      20.64643965  F       13      -0.00940819      -0.00500752      -0.00271639
O       18.38129202       1.61483499      20.64644013  F       14       0.00475465      -0.00463878      -0.00449907
Sn      20.47710712       1.61483536      20.64643955  F       15      -0.00468972       0.00926262       0.01379784
Sn      17.06425615       3.22967011      20.64643991  F       16       0.00535497       0.01697236       0.01935289
O       20.47710711       0.00000010      21.98505885  F       17       0.00187002      -0.00170415      -0.01493408
O       17.06425609       3.22967028      22.71331588  F       18      -0.00827455      -0.00116684      -0.01210154
O       14.98680068       1.61483519      24.05084986  F       19      -0.04708272      -0.01705084       0.02237858
O       19.14171224       1.61483501      24.05085043  F       20       0.01321070      -0.01506081      -0.00053018
Sn      13.65140581       3.22967028      24.11991567  F       21       0.02583766       0.04418930      -0.00075753
Sn      17.06425608       1.61483508      23.99493530  F       22       0.02679387       0.04052115       0.02955621
O       17.06425637       0.00000012      25.32920843  F       23      -0.01941327      -0.01343216       0.02158368
O       13.64809304       3.22660941      26.20012205  T       24      -0.00824866      -0.00862189      -0.00458908
O       15.81219496       1.61983594      27.65503313  T       25      -0.00211778       0.00095973      -0.00177965
O       18.31887758       1.61664783      27.65330572  T       26      -0.00016719       0.00234468      -0.00175067
Sn      20.47605197       1.61216859      27.65942580  T       27      -0.00735406       0.00579530       0.00305659
Sn      17.06685865       0.00471287      27.35777821  T       28      -0.00165301       0.00635694      -0.00707310
O       20.47537156       3.22571636      28.86457705  T       29       0.00023610       0.00864207      -0.00695157
O       20.47710709       6.45934050      12.43114757  F        0       0.00003508      -0.00000833       0.00174671
O       15.81096432       4.84450598      13.63952349  F        1      -0.01651269      -0.00006841      -0.00696558
O       18.31754854       4.84450595      13.63952293  F        2       0.01646122      -0.00007305      -0.00700384
Sn      13.65140527       4.84450527      13.63204828  F        3       0.00016870      -0.00004619      -0.00352934
Sn      17.06425658       3.22967091      13.93646918  F        4       0.00005747       0.00017363       0.00090367
O       20.47710740       6.45934046      15.10100240  F        5       0.00033761      -0.00018898       0.00175768
O       17.06425672       3.22967052      15.96367047  F        6      -0.00027168      -0.00042873       0.00168115
O       14.98680034       4.84450546      17.24202773  F        7      -0.00256301      -0.00035423      -0.00420941
O       19.14171209       4.84450547      17.24202843  F        8       0.00163400      -0.00106054      -0.00506467
Sn      20.47710704       6.45934061      17.17296284  F        9      -0.00180993       0.00083517       0.03344443
Sn      17.06425618       4.84450535      17.29794302  F       10       0.00111644       0.00298034      -0.00107504
O       17.06425653       3.22967040      18.57956262  F       11      -0.00072353      -0.00299613      -0.00196661
O       20.47710711       3.22967066      19.30782007  F       12       0.00245258      -0.00010038      -0.00054351
O       15.74722046       4.84450538      20.64643965  F       13      -0.02038382      -0.00868412      -0.00901733
O       18.38129202       4.84450536      20.64644013  F       14       0.01011188      -0.01197287      -0.01156257
Sn      20.47710712       4.84450573      20.64643955  F       15      -0.01139162       0.00644902       0.02321482
Sn      17.06425615       6.45934047      20.64643991  F       16       0.01101992       0.00461219       0.06480285
O       20.47710711       3.22967047      21.98505885  F       17       0.00514653      -0.01709836      -0.03185634
O       17.06425609       6.45934065      22.71331588  F       18      -0.02395774      -0.00041908      -0.19869722
O       14.98680068       4.84450555      24.05084986  F       19      -0.13561007      -0.02817665      -0.00033481
O       19.14171224       4.84450537      24.05085043  F       20       0.10994782      -0.04963320      -0.01238758
Sn      13.65140581       6.45934065      24.11991567  F       21       0.08099891      -0.21965639      -0.45924407
Sn      17.06425608       4.84450545      23.99493530  F       22       0.03095963       0.31910563       0.31054679
O       17.06425637       3.22967049      25.32920843  F       23      -0.01900255      -0.15167686      -0.17359538
O       13.56668491       6.40447991      26.16502962  T       24       0.00618928      -0.00499942       0.00447935
O       15.79566547       4.83600158      27.60486791  T       25       0.00047463       0.00548308       0.00377181
O       18.32402676       4.83332069      27.60431108  T       26      -0.00087151      -0.00619538      -0.00290994
Sn      20.46080339       4.84127438      27.65902200  T       27      -0.00068655      -0.00760757       0.00451791
Sn      17.07011403       3.24017362      27.34514708  T       28       0.00661213      -0.00061939       0.00238961
O       20.43802575       6.47936929      28.83711771  T       29      -0.00094502       0.00125841      -0.00919217
O       20.47710709       9.68901086      12.43114757  F        0       0.00003042       0.00002538       0.00175947
O       15.81096432       8.07417635      13.63952349  F        1      -0.01658314       0.00002429      -0.00704663
O       18.31754854       8.07417632      13.63952293  F        2       0.01648346       0.00001317      -0.00709790
Sn      13.65140527       8.07417564      13.63204828  F        3       0.00021155      -0.00009321      -0.00359163
Sn      17.06425658       6.45934127      13.93646918  F        4       0.00009954       0.00004746       0.00186610
O       20.47710740       9.68901082      15.10100240  F        5       0.00030028       0.00028397       0.00183094
O       17.06425672       6.45934088      15.96367047  F        6      -0.00037619      -0.00012122       0.00080232
O       14.98680034       8.07417583      17.24202773  F        7      -0.00318897       0.00045776      -0.00309150
O       19.14171209       8.07417583      17.24202843  F        8       0.00172566       0.00024195      -0.00501052
Sn      20.47710704       9.68901097      17.17296284  F        9      -0.00144908      -0.00142123       0.03253977
Sn      17.06425618       8.07417571      17.29794302  F       10       0.00192190      -0.00106465      -0.00040259
O       17.06425653       6.45934077      18.57956262  F       11      -0.00131357      -0.00017410       0.00189926
O       20.47710711       6.45934102      19.30782007  F       12       0.00269013       0.00052358      -0.00223736
O       15.74722046       8.07417575      20.64643965  F       13      -0.03128907       0.00763461      -0.01101595
O       18.38129202       8.07417572      20.64644013  F       14       0.01391179       0.00627858      -0.01775980
Sn      20.47710712       8.07417609      20.64643955  F       15      -0.01535105      -0.00404831       0.02384901
Sn      17.06425615       9.68901084      20.64643991  F       16       0.01350660      -0.01850753       0.03565592
O       20.47710711       6.45934083      21.98505885  F       17       0.01349827      -0.00707682      -0.04107637
O       17.06425609       9.68901101      22.71331588  F       18      -0.03675766       0.02700823      -0.14168455
O       14.98680068       8.07417592      24.05084986  F       19      -0.36344349       0.12504721       0.11665177
O       19.14171224       8.07417574      24.05085043  F       20       0.21703066       0.02430343      -0.02391534
Sn      13.65140581       9.68901101      24.11991567  F       21       0.05320342      -0.02714575      -0.33116150
Sn      17.06425608       8.07417581      23.99493530  F       22       0.13522005      -0.10855163       0.60213798
O       17.06425637       6.45934085      25.32920843  F       23      -0.07654558      -0.35016608       0.15171555
O       13.56984890       9.70997945      26.23939550  T       24      -0.00123659      -0.00015530      -0.00449624
O       15.72785693       8.09048562      27.31533501  T       25      -0.00790368      -0.01146819      -0.00525840
O       18.37697259       8.06601675      27.29264381  T       26       0.01512651       0.00412251      -0.01021878
Sn      20.45007385       8.06612788      27.59492914  T       27      -0.00756937       0.00534417       0.00424610
Sn      17.05573311       6.48276862      27.43882433  T       28       0.01079081       0.00375834       0.00071980
O       20.39530569       9.66009115      28.83665852  T       29       0.00058465       0.00607027      -0.00383389
O       20.47710709      12.91868123      12.43114757  F        0       0.00001583       0.00002656       0.00174838
O       15.81096432      11.30384671      13.63952349  F        1      -0.01652834       0.00007653      -0.00683110
O       18.31754854      11.30384668      13.63952293  F        2       0.01642635       0.00008554      -0.00688268
Sn      13.65140527      11.30384601      13.63204828  F        3       0.00015900      -0.00012133      -0.00395977
Sn      17.06425658       9.68901164      13.93646918  F        4       0.00011458      -0.00014033       0.00153124
O       20.47710740      12.91868119      15.10100240  F        5       0.00014548       0.00034511       0.00227392
O       17.06425672       9.68901125      15.96367047  F        6      -0.00044750       0.00035134       0.00092635
O       14.98680034      11.30384619      17.24202773  F        7      -0.00273681       0.00117004      -0.00255062
O       19.14171209      11.30384620      17.24202843  F        8       0.00124757       0.00128341      -0.00456537
Sn      20.47710704      12.91868134      17.17296284  F        9      -0.00089852      -0.00167114       0.03026132
Sn      17.06425618      11.30384608      17.29794302  F       10       0.00201967      -0.00395700      -0.00456021
O       17.06425653       9.68901113      18.57956262  F       11      -0.00194215       0.00278336       0.00402205
O       20.47710711       9.68901139      19.30782007  F       12       0.00196312       0.00053345      -0.00061633
O       15.74722046      11.30384611      20.64643965  F       13      -0.02223373       0.00932026       0.00167003
O       18.38129202      11.30384609      20.64644013  F       14       0.00389555       0.00992604      -0.00530610
Sn      20.47710712      11.30384646      20.64643955  F       15      -0.00514538      -0.00607222       0.01752278
Sn      17.06425615      12.91868120      20.64643991  F       16       0.01192267      -0.00918545      -0.00444656
O       20.47710711       9.68901120      21.98505885  F       17       0.01155791       0.01239832      -0.03905215
O       17.06425609      12.91868138      22.71331588  F       18      -0.02688573      -0.01862947       0.01333573
O       14.98680068      11.30384628      24.05084986  F       19      -0.23474114      -0.05343040       0.15073666
O       19.14171224      11.30384610      24.05085043  F       20       0.08434220       0.03897173      -0.00023305
Sn      13.65140581      12.91868138      24.11991567  F       21       0.01700727       0.17280492      -0.43418884
Sn      17.06425608      11.30384618      23.99493530  F       22       0.14937644      -0.27843121       0.22136700
O       17.06425637       9.68901122      25.32920843  F       23      -0.06032430       0.42764026       0.02479775
O       13.64085051      12.95923646      26.17754916  T       24      -0.00102880       0.00284407      -0.00579834
O       15.77858822      11.29684817      27.61098558  T       25      -0.00765063       0.00603112       0.00272682
O       18.31848225      11.32276179      27.59271590  T       26      -0.00648284      -0.01230491       0.00659987
Sn      20.46518016      11.30051153      27.65338146  T       27       0.00100795      -0.00250929       0.00930837
Sn      17.08595400       9.66038586      27.41465359  T       28      -0.00090496      -0.00125337       0.00309048
O       20.46008499      12.90988296      28.86295599  T       29      -0.00623592       0.00432060      -0.00162929
O       20.47710709      16.14835159      12.43114757  F        0       0.00001126       0.00001497       0.00175154
O       15.81096432      14.53351708      13.63952349  F        1      -0.01641405       0.00002647      -0.00661627
O       18.31754854      14.53351705      13.63952293  F        2       0.01636001       0.00003234      -0.00665738
Sn      13.65140527      14.53351637      13.63204828  F        3       0.00006672       0.00013502      -0.00408849
Sn      17.06425658      12.91868201      13.93646918  F        4       0.00010589      -0.00018124       0.00035840
O       20.47710740      16.14835156      15.10100240  F        5       0.00009593      -0.00003338       0.00250447
O       17.06425672      12.91868161      15.96367047  F        6      -0.00039484       0.00042004       0.00237343
O       14.98680034      14.53351656      17.24202773  F        7      -0.00163236      -0.00027582      -0.00304110
O       19.14171209      14.53351656      17.24202843  F        8       0.00064227       0.00047888      -0.00399803
Sn      20.47710704      16.14835170      17.17296284  F        9      -0.00077292       0.00025657       0.02871835
Sn      17.06425618      14.53351644      17.29794302  F       10       0.00122697      -0.00123397      -0.00760692
O       17.06425653      12.91868150      18.57956262  F       11      -0.00145339       0.00154231       0.00033719
O       20.47710711      12.91868175      19.30782007  F       12       0.00153873      -0.00055727       0.00039840
O       15.74722046      14.53351648      20.64643965  F       13      -0.01361145      -0.00318784       0.00274782
O       18.38129202      14.53351646      20.64644013  F       14       0.00186684       0.00050978      -0.00057336
Sn      20.47710712      14.53351682      20.64643955  F       15      -0.00225757      -0.00605576       0.01143839
Sn      17.06425615      16.14835157      20.64643991  F       16       0.00605409       0.00596790       0.00858536
O       20.47710711      12.91868157      21.98505885  F       17       0.00203846       0.01231987      -0.02510034
O       17.06425609      16.14835175      22.71331588  F       18      -0.00991268      -0.00796819       0.00144370
O       14.98680068      14.53351665      24.05084986  F       19      -0.03464562      -0.02608160       0.02221937
O       19.14171224      14.53351647      24.05085043  F       20       0.00061499      -0.00192507       0.00057336
Sn      13.65140581      16.14835174      24.11991567  F       21       0.01191599       0.03568582      -0.02365254
Sn      17.06425608      14.53351654      23.99493530  F       22       0.03776538       0.02277317       0.01094089
O       17.06425637      12.91868158      25.32920843  F       23      -0.07541586       0.09295624      -0.06593741
O       13.65155870      16.14816311      26.19973020  T       24       0.00034170      -0.00336503      -0.00174719
O       15.80250184      14.52857507      27.64844855  T       25       0.01154545      -0.00813808      -0.00035952
O       18.31119198      14.53446326      27.65960786  T       26       0.00204173      -0.00543541      -0.00284583
Sn      20.47319891      14.52838968      27.66092518  T       27       0.00569649       0.00235480       0.00567290
Sn      17.06441757      12.91310732      27.34765169  T       28       0.00330026       0.00252610       0.00266260
O       20.47139181      16.14425358      28.86014061  T       29       0.00150520      -0.00184036      -0.00040215
O       27.30280959       3.22967013      12.43114757  F        0       0.00000804       0.00000979       0.00178462
O       22.63666682       1.61483561      13.63952349  F        1      -0.01633587      -0.00001067      -0.00656847
O       25.14325104       1.61483559      13.63952293  F        2       0.01635030      -0.00001176      -0.00655099
Sn      20.47710777       1.61483491      13.63204828  F        3      -0.00007655       0.00009466      -0.00347492
Sn      23.88995908       0.00000054      13.93646918  F        4      -0.00001766      -0.00001681      -0.00029409
O       27.30280990       3.22967009      15.10100240  F        5       0.00001607      -0.00000049       0.00301325
O       23.88995922       0.00000015      15.96367047  F        6       0.00012250      -0.00000070       0.00330453
O       21.81250284       1.61483510      17.24202773  F        7       0.00037673      -0.00067516      -0.00384161
O       25.96741459       1.61483510      17.24202843  F        8       0.00055832      -0.00007153      -0.00282983
Sn      27.30280954       3.22967024      17.17296284  F        9      -0.00018957       0.00010430       0.02661754
Sn      23.88995868       1.61483498      17.29794302  F       10      -0.00064304       0.00040439      -0.01048876
O       23.88995902       0.00000003      18.57956262  F       11       0.00039370      -0.00009853       0.00147757
O       27.30280961       0.00000029      19.30782007  F       12       0.00022979      -0.00003170       0.00381333
O       22.57292296       1.61483502      20.64643965  F       13      -0.00176035      -0.00263930      -0.00293450
O       25.20699452       1.61483499      20.64644013  F       14       0.00771283      -0.00130676      -0.00168898
Sn      27.30280962       1.61483536      20.64643955  F       15      -0.00147518       0.00055741       0.00158860
Sn      23.88995865       3.22967011      20.64643991  F       16      -0.00535347       0.00352579       0.00896088
O       27.30280961       0.00000010      21.98505885  F       17       0.00030428      -0.00027437      -0.00532048
O       23.88995859       3.22967028      22.71331588  F       18       0.00785995      -0.00713386      -0.00831743
O       21.81250318       1.61483519      24.05084986  F       19       0.00707506      -0.01941685      -0.00673177
O       25.96741474       1.61483501      24.05085043  F       20       0.00314473      -0.00215843       0.00030632
Sn      20.47710831       3.22967028      24.11991567  F       21      -0.01473549       0.05300475      -0.01414737
Sn      23.88995858       1.61483508      23.99493530  F       22      -0.01397659       0.00803966       0.01559421
O       23.88995887       0.00000012      25.32920843  F       23      -0.00255352      -0.01044873       0.01638393
O       20.48499932       3.22299782      26.19181251  T       24      -0.00194821       0.00283994       0.00095475
O       22.63592189       1.61041097      27.65973736  T       25      -0.00157219       0.00357602       0.00047877
O       25.14203717       1.61345442      27.65358631  T       26       0.00204614       0.00488152      -0.00135656
Sn      27.30117880       1.61456728      27.66082852  T       27      -0.00571009      -0.00030518       0.00207350
Sn      23.88894776      -0.00334792      27.35736527  T       28      -0.00167232       0.00131822       0.00317454
O       27.30139810       3.22980665      28.86124995  T       29      -0.00134227       0.00037698      -0.00302613
O       27.30280959       6.45934050      12.43114757  F        0       0.00001005      -0.00000514       0.00180280
O       22.63666682       4.84450598      13.63952349  F        1      -0.01634035      -0.00001198      -0.00662918
O       25.14325104       4.84450595      13.63952293  F        2       0.01635951      -0.00001980      -0.00658610
Sn      20.47710777       4.84450527      13.63204828  F        3      -0.00015080       0.00015466      -0.00301880
Sn      23.88995908       3.22967091      13.93646918  F        4      -0.00006468       0.00003322      -0.00016886
O       27.30280990       6.45934046      15.10100240  F        5       0.00003983      -0.00000995       0.00298452
O       23.88995922       3.22967052      15.96367047  F        6       0.00030487      -0.00019957       0.00308289
O       21.81250284       4.84450546      17.24202773  F        7       0.00088362      -0.00086768      -0.00451769
O       25.96741459       4.84450547      17.24202843  F        8       0.00077844      -0.00015448      -0.00301486
Sn      27.30280954       6.45934061      17.17296284  F        9      -0.00032904       0.00005995       0.02681808
Sn      23.88995868       4.84450535      17.29794302  F       10      -0.00167678       0.00073555      -0.00939297
O       23.88995902       3.22967040      18.57956262  F       11       0.00087874      -0.00073686       0.00080462
O       27.30280961       3.22967066      19.30782007  F       12       0.00042226      -0.00030849       0.00369561
O       22.57292296       4.84450538      20.64643965  F       13       0.00053420      -0.00259167      -0.00530801
O       25.20699452       4.84450536      20.64644013  F       14       0.00894372      -0.00060647      -0.00226484
Sn      27.30280962       4.84450573      20.64643955  F       15      -0.00274315       0.00024903       0.00156669
Sn      23.88995865       6.45934047      20.64643991  F       16      -0.00809227       0.00012322       0.01026672
O       27.30280961       3.22967047      21.98505885  F       17       0.00089383      -0.00046063      -0.00533709
O       23.88995859       6.45934065      22.71331588  F       18       0.00678722       0.00075995      -0.00796321
O       21.81250318       4.84450555      24.05084986  F       19       0.03804314      -0.04396304      -0.04226631
O       25.96741474       4.84450537      24.05085043  F       20       0.00558858      -0.00042497       0.00023262
Sn      20.47710831       6.45934065      24.11991567  F       21      -0.05877153      -0.01199312      -0.10699809
Sn      23.88995858       4.84450545      23.99493530  F       22      -0.04080084       0.00588448       0.01943158
O       23.88995887       3.22967049      25.32920843  F       23      -0.00579154      -0.00215168       0.03313524
O       20.54827928       6.43666024      26.17895073  T       24       0.00936853      -0.00443116      -0.00063705
O       22.63445679       4.84114459      27.68368122  T       25      -0.00101268       0.00466440      -0.00156609
O       25.14192960       4.84456480      27.64616717  T       26       0.00065932       0.00095786      -0.00096784
Sn      27.29949866       4.84467566      27.65982307  T       27       0.00134241      -0.00122955       0.00187880
Sn      23.88615092       3.22876399      27.35859010  T       28      -0.00253377       0.00195845       0.00227249
O       27.30360306       6.45827336      28.86245064  T       29      -0.00107968       0.00422731      -0.00522572
O       27.30280959       9.68901086      12.43114757  F        0       0.00000898       0.00002215       0.00180638
O       22.63666682       8.07417635      13.63952349  F        1      -0.01635653      -0.00000800      -0.00666702
O       25.14325104       8.07417632      13.63952293  F        2       0.01637882      -0.00000817      -0.00661188
Sn      20.47710777       8.07417564      13.63204828  F        3      -0.00016384      -0.00002491      -0.00278887
Sn      23.88995908       6.45934127      13.93646918  F        4      -0.00013615       0.00001917       0.00006950
O       27.30280990       9.68901082      15.10100240  F        5       0.00003533       0.00001507       0.00298607
O       23.88995922       6.45934088      15.96367047  F        6       0.00053103      -0.00013356       0.00260954
O       21.81250284       8.07417583      17.24202773  F        7       0.00104769       0.00014700      -0.00452190
O       25.96741459       8.07417583      17.24202843  F        8       0.00091092       0.00002866      -0.00303402
Sn      27.30280954       9.68901097      17.17296284  F        9      -0.00029459      -0.00009749       0.02669024
Sn      23.88995868       8.07417571      17.29794302  F       10      -0.00225226      -0.00012688      -0.00899133
O       23.88995902       6.45934077      18.57956262  F       11       0.00115326      -0.00022166       0.00018025
O       27.30280961       6.45934102      19.30782007  F       12       0.00061003       0.00000654       0.00376566
O       22.57292296       8.07417575      20.64643965  F       13       0.00010050       0.00087639      -0.00457333
O       25.20699452       8.07417572      20.64644013  F       14       0.00961949       0.00045460      -0.00252118
Sn      27.30280962       8.07417609      20.64643955  F       15      -0.00296631      -0.00031967       0.00128144
Sn      23.88995865       9.68901084      20.64643991  F       16      -0.00733298      -0.00154796       0.00862311
O       27.30280961       6.45934083      21.98505885  F       17       0.00148104       0.00012234      -0.00525822
O       23.88995859       9.68901101      22.71331588  F       18       0.00503588       0.00187668      -0.00542520
O       21.81250318       8.07417592      24.05084986  F       19       0.02584720       0.01043531      -0.00991637
O       25.96741474       8.07417574      24.05085043  F       20       0.00455512      -0.00010867       0.00213208
Sn      20.47710831       9.68901101      24.11991567  F       21      -0.03331565      -0.01701634      -0.11594094
Sn      23.88995858       8.07417581      23.99493530  F       22      -0.04022583      -0.00590524       0.02900973
O       23.88995887       6.45934085      25.32920843  F       23       0.00847353      -0.00389595       0.02167404
O       20.54587834       9.70927906      26.18202778  T       24       0.00041189       0.00066315      -0.00438166
O       22.63206119       8.07541678      27.67750461  T       25      -0.00608957      -0.00060879      -0.00076790
O       25.13856352       8.06983389      27.65464186  T       26       0.01400214       0.00071258      -0.00686138
Sn      27.29991541       8.07321255      27.66143368  T       27      -0.00309655      -0.00128245       0.00247827
Sn      23.87877837       6.45705263      27.35793523  T       28      -0.00211551       0.00140159       0.00213972
O       27.30218162       9.68885164      28.86147260  T       29      -0.00428673      -0.00272786      -0.00332701
O       27.30280959      12.91868123      12.43114757  F        0       0.00000761       0.00001923       0.00179070
O       22.63666682      11.30384671      13.63952349  F        1      -0.01635191       0.00000269      -0.00661565
O       25.14325104      11.30384668      13.63952293  F        2       0.01636699       0.00001530      -0.00658181
Sn      20.47710777      11.30384601      13.63204828  F        3      -0.00010997      -0.00017275      -0.00313589
Sn      23.88995908       9.68901164      13.93646918  F        4      -0.00012261      -0.00003374       0.00003117
O       27.30280990      12.91868119      15.10100240  F        5       0.00001247       0.00002132       0.00301963
O       23.88995922       9.68901125      15.96367047  F        6       0.00049823       0.00015769       0.00267926
O       21.81250284      11.30384619      17.24202773  F        7       0.00069271       0.00092849      -0.00429927
O       25.96741459      11.30384620      17.24202843  F        8       0.00074971       0.00016254      -0.00294340
Sn      27.30280954      12.91868134      17.17296284  F        9      -0.00015069      -0.00007977       0.02645887
Sn      23.88995868      11.30384608      17.29794302  F       10      -0.00143556      -0.00076979      -0.00975187
O       23.88995902       9.68901113      18.57956262  F       11       0.00106871       0.00047499       0.00032482
O       27.30280961       9.68901139      19.30782007  F       12       0.00056025       0.00011344       0.00386890
O       22.57292296      11.30384611      20.64643965  F       13      -0.00011526       0.00262736      -0.00439755
O       25.20699452      11.30384609      20.64644013  F       14       0.00854735       0.00057227      -0.00197489
Sn      27.30280962      11.30384646      20.64643955  F       15      -0.00233494      -0.00042376       0.00106929
Sn      23.88995865      12.91868120      20.64643991  F       16      -0.00453204      -0.00277631       0.00728402
O       27.30280961       9.68901120      21.98505885  F       17       0.00120266       0.00033157      -0.00532378
O       23.88995859      12.91868138      22.71331588  F       18       0.00634856       0.00638634      -0.00577601
O       21.81250318      11.30384628      24.05084986  F       19       0.02657597       0.03699505      -0.03208957
O       25.96741474      11.30384610      24.05085043  F       20       0.00370021       0.00176615       0.00052598
Sn      20.47710831      12.91868138      24.11991567  F       21      -0.00019231      -0.03043789      -0.03642972
Sn      23.88995858      11.30384618      23.99493530  F       22      -0.02991472      -0.00614957       0.01225343
O       23.88995887       9.68901122      25.32920843  F       23       0.00904425       0.00581888       0.01602444
O       20.48185084      12.92119073      26.19164612  T       24       0.00266920       0.00385953      -0.00170487
O       22.63414231      11.29683778      27.68862951  T       25      -0.00239491       0.00882163      -0.00130880
O       25.14154276      11.30134923      27.64768837  T       26       0.00817230       0.00329330      -0.00216646
Sn      27.30034319      11.30312470      27.65977775  T       27       0.00576270      -0.00038583       0.00091740
Sn      23.88654820       9.68512578      27.35756952  T       28      -0.00286196       0.00393589       0.00007463
O       27.30426150      12.91736976      28.86167193  T       29      -0.00549813       0.00008109      -0.00517350
O       27.30280959      16.14835159      12.43114757  F        0       0.00000658       0.00001412       0.00178790
O       22.63666682      14.53351708      13.63952349  F        1      -0.01633719       0.00000746      -0.00656690
O       25.14325104      14.53351705      13.63952293  F        2       0.01635113       0.00001094      -0.00654905
Sn      20.47710777      14.53351637      13.63204828  F        3      -0.00004840      -0.00007525      -0.00354257
Sn      23.88995908      12.91868201      13.93646918  F        4      -0.00005096      -0.00005551      -0.00020278
O       27.30280990      16.14835156      15.10100240  F        5       0.00000898       0.00001077       0.00302428
O       23.88995922      12.91868161      15.96367047  F        6       0.00026023       0.00018023       0.00315915
O       21.81250284      14.53351656      17.24202773  F        7       0.00022542       0.00047532      -0.00367634
O       25.96741459      14.53351656      17.24202843  F        8       0.00053899       0.00003236      -0.00279602
Sn      27.30280954      16.14835170      17.17296284  F        9      -0.00008270       0.00001530       0.02638683
Sn      23.88995868      14.53351644      17.29794302  F       10      -0.00055206      -0.00025081      -0.01068495
O       23.88995902      12.91868150      18.57956262  F       11       0.00076800       0.00059987       0.00098537
O       27.30280961      12.91868175      19.30782007  F       12       0.00034827       0.00021621       0.00386907
O       22.57292296      14.53351648      20.64643965  F       13      -0.00210205       0.00179037      -0.00274119
O       25.20699452      14.53351646      20.64644013  F       14       0.00754152       0.00091523      -0.00146917
Sn      27.30280962      14.53351682      20.64643955  F       15      -0.00124585      -0.00011954       0.00128713
Sn      23.88995865      16.14835157      20.64643991  F       16      -0.00348738       0.00060867       0.00419676
O       27.30280961      12.91868157      21.98505885  F       17       0.00082919       0.00014399      -0.00496016
O       23.88995859      16.14835175      22.71331588  F       18       0.00442597       0.00053303      -0.00607597
O       21.81250318      14.53351665      24.05084986  F       19       0.00566489       0.00896558      -0.00520085
O       25.96741474      14.53351647      24.05085043  F       20       0.00216067      -0.00062460       0.00070767
Sn      20.47710831      16.14835174      24.11991567  F       21      -0.00226806       0.00699943      -0.02067018
Sn      23.88995858      14.53351654      23.99493530  F       22      -0.01337957      -0.00206348       0.01251367
O       23.88995887      12.91868158      25.32920843  F       23      -0.01254047      -0.01625888       0.05021416
O       20.47663201      16.14367182      26.19223125  T       24      -0.00138934       0.00507100      -0.00455952
O       22.63348892      14.52934909      27.66224821  T       25       0.00302112       0.00183038      -0.00106314
O       25.14099387      14.52908894      27.65426239  T       26      -0.00007108       0.00447474      -0.00285207
Sn      27.30091831      14.53237244      27.66073410  T       27      -0.00071072       0.00045598       0.00221759
Sn      23.88394596      12.91379923      27.35927404  T       28      -0.00198333       0.00253420       0.00134027
O       27.30047598      16.14739136      28.86139509  T       29       0.00052771       0.00160577      -0.00324279
O       34.12851209       3.22967013      12.43114757  F        0      -0.00000130       0.00000483       0.00178200
O       29.46236932       1.61483561      13.63952349  F        1      -0.01633424      -0.00000318      -0.00652573
O       31.96895354       1.61483559      13.63952293  F        2       0.01633045      -0.00000261      -0.00652318
Sn      27.30281027       1.61483491      13.63204828  F        3      -0.00001642      -0.00000337      -0.00384578
Sn      30.71566158       0.00000054      13.93646918  F        4       0.00000160      -0.00002003      -0.00039500
O       34.12851240       3.22967009      15.10100240  F        5       0.00000177       0.00001484       0.00305992
O       30.71566172       0.00000015      15.96367047  F        6       0.00000077       0.00000769       0.00349678
O       28.63820534       1.61483510      17.24202773  F        7      -0.00031020      -0.00003212      -0.00273597
O       32.79311709       1.61483510      17.24202843  F        8       0.00040059       0.00000029      -0.00267407
Sn      34.12851204       3.22967024      17.17296284  F        9      -0.00004208      -0.00001921       0.02619797
Sn      30.71566118       1.61483498      17.29794302  F       10      -0.00004903       0.00000561      -0.01156341
O       30.71566152       0.00000003      18.57956262  F       11       0.00001298      -0.00001090       0.00259578
O       34.12851211       0.00000029      19.30782007  F       12       0.00010156      -0.00005159       0.00421054
O       29.39862546       1.61483502      20.64643965  F       13      -0.00563310      -0.00011082      -0.00018836
O       32.03269702       1.61483499      20.64644013  F       14       0.00612776      -0.00004664      -0.00000764
Sn      34.12851212       1.61483536      20.64643955  F       15      -0.00041796       0.00014004      -0.00028388
Sn      30.71566115       3.22967011      20.64643991  F       16      -0.00037992       0.00012032       0.00028515
O       34.12851211       0.00000010      21.98505885  F       17       0.00028458       0.00006706      -0.00366212
O       30.71566109       3.22967028      22.71331588  F       18       0.00051483      -0.00036307      -0.00279461
O       28.63820568       1.61483519      24.05084986  F       19       0.00137959      -0.00115633       0.00170014
O       32.79311724       1.61483501      24.05085043  F       20       0.00064190       0.00125728       0.00317998
Sn      27.30281081       3.22967028      24.11991567  F       21      -0.00591280       0.00134401      -0.02594018
Sn      30.71566108       1.61483508      23.99493530  F       22      -0.00217462       0.00083187       0.01185789
O       30.71566137       0.00000012      25.32920843  F       23       0.00263702       0.00421544       0.00969701
O       27.30294605       3.22905885      26.19131291  T       24       0.00409065       0.00038071       0.00007796
O       29.46100579       1.61592076      27.65440320  T       25      -0.00188372      -0.00265476       0.00082356
O       31.96886116       1.61785652      27.65771683  T       26       0.00092989      -0.00232540      -0.00380377
Sn      34.12852807       1.61953187      27.66189028  T       27       0.00142715      -0.00407046      -0.00126392
Sn      30.71558873       0.00189432      27.35718998  T       28      -0.00287169      -0.00104559       0.00221205
O       34.13179969       3.23478432      28.86213924  T       29      -0.00315497      -0.00295166      -0.00000918
O       34.12851209       6.45934050      12.43114757  F        0      -0.00000125      -0.00000052       0.00179183
O       29.46236932       4.84450598      13.63952349  F        1      -0.01632524      -0.00000547      -0.00652498
O       31.96895354       4.84450595      13.63952293  F        2       0.01632154      -0.00000414      -0.00652066
Sn      27.30281027       4.84450527      13.63204828  F        3      -0.00002202       0.00001398      -0.00385341
Sn      30.71566158       3.22967091      13.93646918  F        4      -0.00000087      -0.00000074      -0.00039315
O       34.12851240       6.45934046      15.10100240  F        5       0.00000246       0.00000581       0.00306970
O       30.71566172       3.22967052      15.96367047  F        6       0.00000733      -0.00000829       0.00349703
O       28.63820534       4.84450546      17.24202773  F        7      -0.00025946      -0.00003052      -0.00280661
O       32.79311709       4.84450547      17.24202843  F        8       0.00040536       0.00002095      -0.00266831
Sn      34.12851204       6.45934061      17.17296284  F        9      -0.00006207      -0.00003515       0.02611826
Sn      30.71566118       4.84450535      17.29794302  F       10      -0.00010042       0.00000719      -0.01155072
O       30.71566152       3.22967040      18.57956262  F       11       0.00003854      -0.00001339       0.00256005
O       34.12851211       3.22967066      19.30782007  F       12       0.00010249       0.00001687       0.00422859
O       29.39862546       4.84450538      20.64643965  F       13      -0.00562908      -0.00006146      -0.00017846
O       32.03269702       4.84450536      20.64644013  F       14       0.00627049      -0.00000850      -0.00004337
Sn      34.12851212       4.84450573      20.64643955  F       15      -0.00052181      -0.00014897      -0.00033454
Sn      30.71566115       6.45934047      20.64643991  F       16      -0.00055877      -0.00008148       0.00043268
O       34.12851211       3.22967047      21.98505885  F       17       0.00027340       0.00033421      -0.00376517
O       30.71566109       6.45934065      22.71331588  F       18       0.00055568      -0.00018142      -0.00296206
O       28.63820568       4.84450555      24.05084986  F       19       0.00111975       0.00011292       0.00133549
O       32.79311724       4.84450537      24.05085043  F       20       0.00129759       0.00175348       0.00304918
Sn      27.30281081       6.45934065      24.11991567  F       21      -0.00748416       0.00041341      -0.02211730
Sn      30.71566108       4.84450545      23.99493530  F       22      -0.00175950       0.00078314       0.01286812
O       30.71566137       3.22967049      25.32920843  F       23       0.00135924       0.00150148       0.00581497
O       27.30474506       6.45984665      26.19172286  T       24       0.00085416      -0.00027571      -0.00216955
O       29.46071782       4.84582066      27.65525634  T       25      -0.00365824       0.00000428      -0.00017138
O       31.96884768       4.84711121      27.65431267  T       26       0.00327837      -0.00158324       0.00163434
Sn      34.12829880       4.84909124      27.66134559  T       27      -0.00286385      -0.00244064       0.00074497
Sn      30.71429014       3.23196794      27.35701497  T       28      -0.00169607      -0.00449593       0.00243336
O       34.12572275       6.46434151      28.86176226  T       29       0.00434480      -0.00431027       0.00073737
O       34.12851209       9.68901086      12.43114757  F        0      -0.00000115       0.00002041       0.00179702
O       29.46236932       8.07417635      13.63952349  F        1      -0.01633736      -0.00000914      -0.00652409
O       31.96895354       8.07417632      13.63952293  F        2       0.01633605      -0.00000895      -0.00652367
Sn      27.30281027       8.07417564      13.63204828  F        3      -0.00002715      -0.00000151      -0.00385344
Sn      30.71566158       6.45934127      13.93646918  F        4      -0.00000330      -0.00000510      -0.00038582
O       34.12851240       9.68901082      15.10100240  F        5       0.00000623       0.00000167       0.00307083
O       30.71566172       6.45934088      15.96367047  F        6       0.00001838      -0.00000651       0.00350536
O       28.63820534       8.07417583      17.24202773  F        7      -0.00023210       0.00001619      -0.00281147
O       32.79311709       8.07417583      17.24202843  F        8       0.00042880       0.00001591      -0.00264084
Sn      34.12851204       9.68901097      17.17296284  F        9      -0.00006959       0.00000479       0.02603722
Sn      30.71566118       8.07417571      17.29794302  F       10      -0.00013081       0.00000470      -0.01157550
O       30.71566152       6.45934077      18.57956262  F       11       0.00006896       0.00001368       0.00258014
O       34.12851211       6.45934102      19.30782007  F       12       0.00013836       0.00004745       0.00431059
O       29.39862546       8.07417575      20.64643965  F       13      -0.00563118       0.00010250      -0.00010012
O       32.03269702       8.07417572      20.64644013  F       14       0.00629268       0.00008285      -0.00000836
Sn      34.12851212       8.07417609      20.64643955  F       15      -0.00073268      -0.00008561      -0.00057656
Sn      30.71566115       9.68901084      20.64643991  F       16      -0.00049343      -0.00009554       0.00010606
O       34.12851211       6.45934083      21.98505885  F       17       0.00035031       0.00050405      -0.00354804
O       30.71566109       9.68901101      22.71331588  F       18       0.00047811      -0.00019476      -0.00260386
O       28.63820568       8.07417592      24.05084986  F       19       0.00158241       0.00138578       0.00065186
O       32.79311724       8.07417574      24.05085043  F       20       0.00122908       0.00066858       0.00293939
Sn      27.30281081       9.68901101      24.11991567  F       21      -0.00725775      -0.00196125      -0.02485104
Sn      30.71566108       8.07417581      23.99493530  F       22      -0.00184635      -0.00125582       0.01241890
O       30.71566137       6.45934085      25.32920843  F       23       0.00101188       0.00511957       0.00865769
O       27.30217431       9.68856161      26.19166519  T       24       0.00210862      -0.00104717      -0.00210631
O       29.46033050       8.07553747      27.65612174  T       25       0.00053760      -0.00131742      -0.00132193
O       31.96862104       8.07719980      27.65495173  T       26      -0.00229761      -0.00252603      -0.00079315
Sn      34.12736267       8.07837307      27.66075079  T       27      -0.00212918      -0.00089157       0.00175124
Sn      30.71426462       6.46149803      27.35723914  T       28      -0.00313290      -0.00357242       0.00027019
O       34.13107940       9.69360835      28.86112962  T       29       0.00090240      -0.00302818       0.00208861
O       34.12851209      12.91868123      12.43114757  F        0      -0.00000019       0.00001654       0.00178343
O       29.46236932      11.30384671      13.63952349  F        1      -0.01633850       0.00000476      -0.00652818
O       31.96895354      11.30384668      13.63952293  F        2       0.01633766       0.00000317      -0.00652724
Sn      27.30281027      11.30384601      13.63204828  F        3      -0.00002117      -0.00001740      -0.00385845
Sn      30.71566158       9.68901164      13.93646918  F        4      -0.00000565      -0.00001199      -0.00038534
O       34.12851240      12.91868119      15.10100240  F        5       0.00000312       0.00000208       0.00306201
O       30.71566172       9.68901125      15.96367047  F        6       0.00001823      -0.00000494       0.00351289
O       28.63820534      11.30384619      17.24202773  F        7      -0.00029092       0.00004082      -0.00276057
O       32.79311709      11.30384620      17.24202843  F        8       0.00043690      -0.00001542      -0.00263282
Sn      34.12851204      12.91868134      17.17296284  F        9      -0.00006169       0.00002997       0.02607864
Sn      30.71566118      11.30384608      17.29794302  F       10      -0.00009988      -0.00000488      -0.01159722
O       30.71566152       9.68901113      18.57956262  F       11       0.00006558       0.00000473       0.00262370
O       34.12851211       9.68901139      19.30782007  F       12       0.00015421       0.00001808       0.00437507
O       29.39862546      11.30384611      20.64643965  F       13      -0.00568231       0.00003517      -0.00008383
O       32.03269702      11.30384609      20.64644013  F       14       0.00625625      -0.00005313       0.00000893
Sn      34.12851212      11.30384646      20.64643955  F       15      -0.00077204       0.00024356      -0.00062288
Sn      30.71566115      12.91868120      20.64643991  F       16      -0.00037760       0.00004742       0.00015374
O       34.12851211       9.68901120      21.98505885  F       17       0.00047647       0.00026722      -0.00360766
O       30.71566109      12.91868138      22.71331588  F       18       0.00034545      -0.00048330      -0.00274638
O       28.63820568      11.30384628      24.05084986  F       19       0.00067170      -0.00037893       0.00220811
O       32.79311724      11.30384610      24.05085043  F       20       0.00069959       0.00079151       0.00263270
Sn      27.30281081      12.91868138      24.11991567  F       21      -0.00497321      -0.00051830      -0.02686276
Sn      30.71566108      11.30384618      23.99493530  F       22      -0.00127261       0.00048085       0.01204830
O       30.71566137       9.68901122      25.32920843  F       23       0.00078204       0.00380810       0.00610244
O       27.30317275      12.91862529      26.19140003  T       24       0.00076484      -0.00016716       0.00014234
O       29.46050208      11.30512153      27.65384280  T       25      -0.00054914      -0.00112336       0.00082572
O       31.96862019      11.30593362      27.65660969  T       26      -0.00337499      -0.00057019      -0.00137991
Sn      34.12698725      11.30833234      27.66098662  T       27       0.00108668      -0.00131289       0.00019577
Sn      30.71367616       9.69091309      27.35699828  T       28      -0.00103200      -0.00402224       0.00202024
O       34.13012744      12.92318779      28.86171739  T       29       0.00069886      -0.00248224      -0.00003368
O       34.12851209      16.14835159      12.43114757  F        0      -0.00000126       0.00000816       0.00178438
O       29.46236932      14.53351708      13.63952349  F        1      -0.01633620       0.00000924      -0.00652792
O       31.96895354      14.53351705      13.63952293  F        2       0.01633489       0.00000666      -0.00652594
Sn      27.30281027      14.53351637      13.63204828  F        3      -0.00001595      -0.00001108      -0.00385562
Sn      30.71566158      12.91868201      13.93646918  F        4      -0.00000161      -0.00003177      -0.00038171
O       34.12851240      16.14835156      15.10100240  F        5      -0.00000042       0.00000538       0.00305521
O       30.71566172      12.91868161      15.96367047  F        6       0.00000970       0.00001211       0.00350641
O       28.63820534      14.53351656      17.24202773  F        7      -0.00032692       0.00001392      -0.00271728
O       32.79311709      14.53351656      17.24202843  F        8       0.00041237      -0.00001724      -0.00265508
Sn      34.12851204      16.14835170      17.17296284  F        9      -0.00004201       0.00001198       0.02619043
Sn      30.71566118      14.53351644      17.29794302  F       10      -0.00004677      -0.00000295      -0.01158523
O       30.71566152      12.91868150      18.57956262  F       11       0.00003924      -0.00000537       0.00262992
O       34.12851211      12.91868175      19.30782007  F       12       0.00013843      -0.00007338       0.00434048
O       29.39862546      14.53351648      20.64643965  F       13      -0.00571926       0.00000304      -0.00015048
O       32.03269702      14.53351646      20.64644013  F       14       0.00615817      -0.00008383       0.00000399
Sn      34.12851212      14.53351682      20.64643955  F       15      -0.00059113       0.00041375      -0.00044422
Sn      30.71566115      16.14835157      20.64643991  F       16      -0.00026623       0.00009844       0.00018094
O       34.12851211      12.91868157      21.98505885  F       17       0.00041357      -0.00000187      -0.00359719
O       30.71566109      16.14835175      22.71331588  F       18       0.00044978      -0.00032992      -0.00253159
O       28.63820568      14.53351665      24.05084986  F       19       0.00110573       0.00008935       0.00147103
O       32.79311724      14.53351647      24.05085043  F       20       0.00067838       0.00151556       0.00254338
Sn      27.30281081      16.14835174      24.11991567  F       21      -0.00420593       0.00076258      -0.02500571
Sn      30.71566108      14.53351654      23.99493530  F       22      -0.00167981      -0.00061261       0.01220768
O       30.71566137      12.91868158      25.32920843  F       23       0.00223452       0.00277626       0.00957073
O       27.30186723      16.14771649      26.19157567  T       24       0.00160416       0.00030754       0.00057489
O       29.46128880      14.53476693      27.65404106  T       25      -0.00325379       0.00231083       0.00214954
O       31.96931056      14.53548454      27.65663964  T       26      -0.00073278       0.00232869      -0.00167803
Sn      34.12857287      14.53802158      27.66148613  T       27      -0.00274097      -0.00199314      -0.00111333
Sn      30.71475512      12.92041979      27.35730724  T       28      -0.00313823       0.00003381      -0.00190347
O       34.13061462      16.15291874      28.86207015  T       29      -0.00128488      -0.00059161       0.00102264
O       17.14019541       6.94230277      29.58936774  T        0      -0.00172621      -0.01398140      -0.00532517
O       17.02835668       9.23819191      29.56628954  T        0       0.00326145      -0.00218835       0.00704737
C       18.22834213       8.18276341      31.31349711  T        0      -0.00364830       0.00965947      -0.01688093
C       17.40144942       8.10158982      30.05664656  T        0       0.00156838       0.01979826      -0.00102091
H       17.85912179       8.99150600      31.95557569  T        0      -0.00044076      -0.01179470       0.01403128
H       18.25443552       7.21710441      31.82850096  T        0      -0.00351143       0.01060300      -0.01106810
H       19.24613204       8.45490181      30.98161660  T        0       0.00417282      -0.00306959       0.00583854
H       14.41700298       9.66729281      29.51329990  T        0       0.00226456       0.00124860      -0.00002757
