758
Lattice="34.12851249988762 0.0 0.0 0.0 16.14835182838364 0.0 0.0 0.0 41.29287865270102" Properties=species:S:1:pos:R:3:move_mask:L:1:spacegroup_kinds:I:1:forces:R:3 spacegroup="P 1" unit_cell=conventional occupancy="_JSON {\"0\": {\"O\": 1.0}, \"1\": {\"O\": 1.0}, \"2\": {\"O\": 1.0}, \"3\": {\"Sn\": 1.0}, \"4\": {\"Sn\": 1.0}, \"5\": {\"O\": 1.0}, \"6\": {\"O\": 1.0}, \"7\": {\"O\": 1.0}, \"8\": {\"O\": 1.0}, \"9\": {\"Sn\": 1.0}, \"10\": {\"Sn\": 1.0}, \"11\": {\"O\": 1.0}, \"12\": {\"O\": 1.0}, \"13\": {\"O\": 1.0}, \"14\": {\"O\": 1.0}, \"15\": {\"Sn\": 1.0}, \"16\": {\"Sn\": 1.0}, \"17\": {\"O\": 1.0}, \"18\": {\"O\": 1.0}, \"19\": {\"O\": 1.0}, \"20\": {\"O\": 1.0}, \"21\": {\"Sn\": 1.0}, \"22\": {\"Sn\": 1.0}, \"23\": {\"O\": 1.0}, \"24\": {\"O\": 1.0}, \"25\": {\"O\": 1.0}, \"26\": {\"O\": 1.0}, \"27\": {\"Sn\": 1.0}, \"28\": {\"Sn\": 1.0}, \"29\": {\"O\": 1.0}}" energy=-4686.63330078125 free_energy=-4686.63330078125 stress="-0.0011812658049166203 -6.9720476858492475e-06 2.7705122192855924e-05 -6.9720476858492475e-06 0.007695511449128389 3.7746249290648848e-06 2.7705122192855924e-05 3.7746249290648848e-06 -5.379280264605768e-05" pbc="T T T"
O        6.82570209       3.22967013      12.43114757  F        0       0.00000354       0.00001110       0.00177580
O        2.15955932       1.61483561      13.63952349  F        1      -0.01634559      -0.00000817      -0.00653512
O        4.66614354       1.61483559      13.63952293  F        2       0.01633373      -0.00000860      -0.00653367
Sn       0.00000027       1.61483491      13.63204828  F        3       0.00002000       0.00000139      -0.00386027
Sn       3.41285158       0.00000054      13.93646918  F        4      -0.00000113      -0.00001652      -0.00037551
O        6.82570240       3.22967009      15.10100240  F        5      -0.00001997      -0.00000520       0.00298661
O        3.41285172       0.00000015      15.96367047  F        6      -0.00000971      -0.00000076       0.00348882
O        1.33539534       1.61483510      17.24202773  F        7      -0.00043219      -0.00000672      -0.00266618
O        5.49030709       1.61483510      17.24202843  F        8       0.00032905      -0.00003515      -0.00276557
Sn       6.82570204       3.22967024      17.17296284  F        9       0.00023775       0.00012106       0.02673829
Sn       3.41285118       1.61483498      17.29794302  F       10       0.00006645       0.00002393      -0.01154221
O        3.41285153       0.00000003      18.57956262  F       11      -0.00003610      -0.00002107       0.00258574
O        6.82570211       0.00000029      19.30782007  F       12      -0.00026879      -0.00004212       0.00372634
O        2.09581546       1.61483502      20.64643965  F       13      -0.00616388      -0.00008751      -0.00009236
O        4.72988702       1.61483499      20.64644013  F       14       0.00552302      -0.00016178      -0.00025724
Sn       6.82570212       1.61483536      20.64643955  F       15       0.00171634       0.00072493       0.00204660
Sn       3.41285115       3.22967011      20.64643991  F       16       0.00052232       0.00017613       0.00063092
O        6.82570211       0.00000010      21.98505885  F       17      -0.00048437      -0.00023729      -0.00566484
O        3.41285109       3.22967028      22.71331588  F       18      -0.00093656      -0.00036343      -0.00309018
O        1.33539568       1.61483519      24.05084986  F       19      -0.00050503       0.00003170       0.00250471
O        5.49030724       1.61483501      24.05085043  F       20      -0.00135764      -0.00170554       0.00134984
Sn       0.00000081       3.22967028      24.11991567  F       21       0.00305215       0.00016223      -0.02698676
Sn       3.41285108       1.61483508      23.99493530  F       22       0.00196890       0.00102788       0.01248254
O        3.41285137       0.00000012      25.32920843  F       23       0.00274060      -0.00082076       0.01297361
O        0.00054037       3.23023992      26.19181465  T       24       0.00108016      -0.00181212       0.00010192
O        2.16229576       1.61495670      27.65465371  T       25      -0.00091678       0.00091339      -0.00026955
O        4.67059352       1.61481931      27.65744721  T       26       0.00052294      -0.00084686      -0.00126462
Sn       6.83160180       1.61519434      27.66079237  T       27       0.00587115       0.00088134       0.00027776
Sn       3.41691053       0.00000198      27.35744007  T       28      -0.00060498       0.00112402       0.00036412
O        6.83508515       3.22997566      28.86154188  T       29      -0.00312857       0.00160250      -0.00253111
O        6.82570209       6.45934050      12.43114757  F        0       0.00000028      -0.00000046       0.00179064
O        2.15955932       4.84450598      13.63952349  F        1      -0.01633853      -0.00000088      -0.00653399
O        4.66614354       4.84450595      13.63952293  F        2       0.01633409       0.00000018      -0.00653424
Sn       0.00000027       4.84450527      13.63204828  F        3       0.00001968       0.00000676      -0.00387409
Sn       3.41285158       3.22967091      13.93646918  F        4      -0.00000084      -0.00000545      -0.00036401
O        6.82570240       6.45934046      15.10100240  F        5      -0.00004970      -0.00001090       0.00294983
O        3.41285172       3.22967052      15.96367047  F        6      -0.00001905      -0.00000968       0.00348529
O        1.33539534       4.84450546      17.24202773  F        7      -0.00043711       0.00001234      -0.00266588
O        5.49030709       4.84450547      17.24202843  F        8       0.00026688      -0.00004228      -0.00285042
Sn       6.82570204       6.45934061      17.17296284  F        9       0.00045055       0.00008814       0.02704377
Sn       3.41285118       4.84450535      17.29794302  F       10       0.00012058       0.00001358      -0.01149913
O        3.41285153       3.22967040      18.57956262  F       11      -0.00006234      -0.00002444       0.00255018
O        6.82570211       3.22967066      19.30782007  F       12      -0.00051214      -0.00032321       0.00356077
O        2.09581546       4.84450538      20.64643965  F       13      -0.00629406      -0.00002313      -0.00015732
O        4.72988702       4.84450536      20.64644013  F       14       0.00542078      -0.00012147      -0.00033468
Sn       6.82570212       4.84450573      20.64643955  F       15       0.00330916       0.00063155       0.00245717
Sn       3.41285115       6.45934047      20.64643991  F       16       0.00073803      -0.00004569       0.00085484
O        6.82570211       3.22967047      21.98505885  F       17      -0.00110447      -0.00077100      -0.00614826
O        3.41285109       6.45934065      22.71331588  F       18      -0.00115955      -0.00006466      -0.00325138
O        1.33539568       4.84450555      24.05084986  F       19      -0.00069141       0.00059635       0.00224449
O        5.49030724       4.84450537      24.05085043  F       20      -0.00222386      -0.00211129      -0.00059116
Sn       0.00000081       6.45934065      24.11991567  F       21       0.00364270      -0.00051576      -0.02915317
Sn       3.41285108       4.84450545      23.99493530  F       22       0.00325511       0.00052743       0.01291514
O        3.41285137       3.22967049      25.32920843  F       23       0.00202357      -0.00009076       0.01192410
O        0.00035268       6.46000190      26.19167315  T       24       0.00033786      -0.00378489       0.00136966
O        2.16259017       4.84500412      27.65483351  T       25       0.00009173      -0.00088207      -0.00056965
O        4.67142243       4.84407991      27.65798420  T       26      -0.00173476       0.00036821      -0.00204132
Sn       6.83368087       4.84474891      27.66016675  T       27      -0.00589457       0.00239004       0.00014547
Sn       3.41718537       3.22995769      27.35743686  T       28       0.00112352      -0.00131552       0.00069177
O        6.83421220       6.45918342      28.86170660  T       29      -0.00694358       0.00114208      -0.00244308
O        6.82570209       9.68901086      12.43114757  F        0      -0.00000140       0.00001906       0.00179607
O        2.15955932       8.07417635      13.63952349  F        1      -0.01634830      -0.00001170      -0.00653195
O        4.66614354       8.07417632      13.63952293  F        2       0.01633584      -0.00000919      -0.00653257
Sn       0.00000027       8.07417564      13.63204828  F        3       0.00001249      -0.00000454      -0.00388810
Sn       3.41285158       6.45934127      13.93646918  F        4       0.00000495      -0.00001014      -0.00036180
O        6.82570240       9.68901082      15.10100240  F        5      -0.00004722       0.00002113       0.00294924
O        3.41285172       6.45934088      15.96367047  F        6      -0.00003121      -0.00000446       0.00348157
O        1.33539534       8.07417583      17.24202773  F        7      -0.00045335       0.00001773      -0.00264123
O        5.49030709       8.07417583      17.24202843  F        8       0.00022334       0.00001328      -0.00286902
Sn       6.82570204       9.68901097      17.17296284  F        9       0.00043341      -0.00010980       0.02693412
Sn       3.41285118       8.07417571      17.29794302  F       10       0.00015635      -0.00001295      -0.01151267
O        3.41285153       6.45934077      18.57956262  F       11      -0.00009888       0.00001156       0.00253819
O        6.82570211       6.45934102      19.30782007  F       12      -0.00078736      -0.00007950       0.00346963
O        2.09581546       8.07417575      20.64643965  F       13      -0.00634225       0.00010056      -0.00014242
O        4.72988702       8.07417572      20.64644013  F       14       0.00538334       0.00009650      -0.00031850
Sn       6.82570212       8.07417609      20.64643955  F       15       0.00396090      -0.00026457       0.00246707
Sn       3.41285115       9.68901084      20.64643991  F       16       0.00072331      -0.00020140       0.00053711
O        6.82570211       6.45934083      21.98505885  F       17      -0.00170833      -0.00012356      -0.00643596
O        3.41285109       9.68901101      22.71331588  F       18      -0.00111284       0.00041594      -0.00287431
O        1.33539568       8.07417592      24.05084986  F       19      -0.00043657       0.00036034       0.00221231
O        5.49030724       8.07417574      24.05085043  F       20      -0.00307018       0.00054208      -0.00158182
Sn       0.00000081       9.68901101      24.11991567  F       21       0.00435740      -0.00070554      -0.03125189
Sn       3.41285108       8.07417581      23.99493530  F       22       0.00372788      -0.00110318       0.01250951
O        3.41285137       6.45934085      25.32920843  F       23       0.00189140       0.00053855       0.01403126
O        0.00040361       9.68885960      26.19159227  T       24      -0.00107807       0.00090077       0.00148511
O        2.16283089       8.07397286      27.65468589  T       25       0.00223812      -0.00019049      -0.00063249
O        4.67123280       8.07421684      27.65851144  T       26       0.00068140      -0.00031846      -0.00132336
Sn       6.83287227       8.07369281      27.66023672  T       27       0.00166983       0.00057321       0.00117198
Sn       3.41844039       6.45914775      27.35758560  T       28       0.00071924      -0.00009616      -0.00099796
O        6.83639823       9.68878435      28.86119266  T       29      -0.00718811      -0.00045830      -0.00210351
O        6.82570209      12.91868123      12.43114757  F        0       0.00000214       0.00001562       0.00178111
O        2.15955932      11.30384671      13.63952349  F        1      -0.01635045       0.00000325      -0.00653468
O        4.66614354      11.30384668      13.63952293  F        2       0.01634037       0.00000542      -0.00653319
Sn       0.00000027      11.30384601      13.63204828  F        3       0.00001498      -0.00001188      -0.00387758
Sn       3.41285158       9.68901164      13.93646918  F        4       0.00000824      -0.00000775      -0.00036556
O        6.82570240      12.91868119      15.10100240  F        5      -0.00002030       0.00002277       0.00299019
O        3.41285172       9.68901125      15.96367047  F        6      -0.00003236      -0.00000226       0.00349282
O        1.33539534      11.30384619      17.24202773  F        7      -0.00045618      -0.00000643      -0.00262687
O        5.49030709      11.30384620      17.24202843  F        8       0.00028004       0.00005095      -0.00280824
Sn       6.82570204      12.91868134      17.17296284  F        9       0.00022773      -0.00010481       0.02660185
Sn       3.41285118      11.30384608      17.29794302  F       10       0.00012361      -0.00001900      -0.01156634
O        3.41285153       9.68901113      18.57956262  F       11      -0.00009591       0.00002941       0.00257350
O        6.82570211       9.68901139      19.30782007  F       12      -0.00076326       0.00017140       0.00354982
O        2.09581546      11.30384611      20.64643965  F       13      -0.00626455       0.00005320      -0.00006719
O        4.72988702      11.30384609      20.64644013  F       14       0.00543458       0.00015249      -0.00022956
Sn       6.82570212      11.30384646      20.64643955  F       15       0.00306206      -0.00076936       0.00201573
Sn       3.41285115      12.91868120      20.64643991  F       16       0.00051938      -0.00005539       0.00023431
O        6.82570211       9.68901120      21.98505885  F       17      -0.00157036       0.00057526      -0.00633109
O        3.41285109      12.91868138      22.71331588  F       18      -0.00086692       0.00021941      -0.00254538
O        1.33539568      11.30384628      24.05084986  F       19      -0.00024046      -0.00018060       0.00264835
O        5.49030724      11.30384610      24.05085043  F       20      -0.00233190       0.00217871       0.00031257
Sn       0.00000081      12.91868138      24.11991567  F       21       0.00383898       0.00046598      -0.02914244
Sn       3.41285108      11.30384618      23.99493530  F       22       0.00297097      -0.00083913       0.01162221
O        3.41285137       9.68901122      25.32920843  F       23       0.00168650       0.00044151       0.01395340
O        0.00030278      12.91801383      26.19171384  T       24       0.00029675       0.00291060       0.00058424
O        2.16272064      11.30326252      27.65512146  T       25       0.00058582       0.00088152      -0.00070182
O        4.67092729      11.30384871      27.65800501  T       26      -0.00139907       0.00009546      -0.00167215
Sn       6.83225101      11.30352454      27.66013654  T       27      -0.00563964      -0.00145179      -0.00043240
Sn       3.41796557       9.68865706      27.35754010  T       28       0.00145490      -0.00031518      -0.00122851
O        6.83497551      12.91837290      28.86132885  T       29      -0.00357209      -0.00045063      -0.00198162
O        6.82570209      16.14835159      12.43114757  F        0       0.00000251       0.00000988       0.00178158
O        2.15955932      14.53351708      13.63952349  F        1      -0.01634234       0.00000719      -0.00653546
O        4.66614354      14.53351705      13.63952293  F        2       0.01633772       0.00000412      -0.00653278
Sn       0.00000027      14.53351637      13.63204828  F        3       0.00001723       0.00000656      -0.00386217
Sn       3.41285158      12.91868201      13.93646918  F        4       0.00000630      -0.00003097      -0.00037134
O        6.82570240      16.14835156      15.10100240  F        5      -0.00001431       0.00000926       0.00300294
O        3.41285172      12.91868161      15.96367047  F        6      -0.00001516       0.00001149       0.00349888
O        1.33539534      14.53351656      17.24202773  F        7      -0.00043665      -0.00001061      -0.00264642
O        5.49030709      14.53351656      17.24202843  F        8       0.00032814       0.00001375      -0.00274824
Sn       6.82570204      16.14835170      17.17296284  F        9       0.00013136       0.00001769       0.02647397
Sn       3.41285118      14.53351644      17.29794302  F       10       0.00006198       0.00000362      -0.01157408
O        3.41285153      12.91868150      18.57956262  F       11      -0.00006108       0.00000949       0.00259868
O        6.82570211      12.91868175      19.30782007  F       12      -0.00045789       0.00026623       0.00370805
O        2.09581546      14.53351648      20.64643965  F       13      -0.00616007      -0.00005803      -0.00003651
O        4.72988702      14.53351646      20.64644013  F       14       0.00554265       0.00000393      -0.00019122
Sn       6.82570212      14.53351682      20.64643955  F       15       0.00157020      -0.00028845       0.00178684
Sn       3.41285115      16.14835157      20.64643991  F       16       0.00037687       0.00013803       0.00032004
O        6.82570211      12.91868157      21.98505885  F       17      -0.00101162       0.00056766      -0.00576674
O        3.41285109      16.14835175      22.71331588  F       18      -0.00078937      -0.00008680      -0.00273654
O        1.33539568      14.53351665      24.05084986  F       19      -0.00010343      -0.00083591       0.00247114
O        5.49030724      14.53351647      24.05085043  F       20      -0.00155978       0.00103989       0.00137455
Sn       0.00000081      16.14835174      24.11991567  F       21       0.00312764       0.00060308      -0.02684601
Sn       3.41285108      14.53351654      23.99493530  F       22       0.00189915       0.00039476       0.01175839
O        3.41285137      12.91868158      25.32920843  F       23       0.00197282      -0.00100749       0.01386301
O        0.00064478      16.14795719      26.19176132  T       24       0.00093569       0.00200768      -0.00002384
O        2.16225482      14.53319271      27.65484000  T       25       0.00050345       0.00028823      -0.00042070
O        4.67047009      14.53335761      27.65745328  T       26       0.00037408       0.00204313      -0.00108194
Sn       6.83127264      14.53347500      27.66089951  T       27       0.00408685      -0.00066562       0.00032839
Sn       3.41710241      12.91837333      27.35747268  T       28       0.00212364       0.00184745       0.00001514
O        6.83448235      16.14849538      28.86142732  T       29      -0.00476242       0.00001590      -0.00073504
O       13.65140459       3.22967013      12.43114757  F        0      -0.00001835       0.00000106       0.00173146
O        8.98526182       1.61483561      13.63952349  F        1      -0.01635054      -0.00001064      -0.00656374
O       11.49184604       1.61483559      13.63952293  F        2       0.01634160      -0.00000978      -0.00657477
Sn       6.82570277       1.61483491      13.63204828  F        3       0.00000286      -0.00000414      -0.00382760
Sn      10.23855408       0.00000054      13.93646918  F        4       0.00001043      -0.00001918      -0.00026703
O       13.65140490       3.22967009      15.10100240  F        5      -0.00022508      -0.00040585       0.00204527
O       10.23855422       0.00000015      15.96367047  F        6      -0.00012473       0.00000389       0.00326662
O        8.16109784       1.61483510      17.24202773  F        7      -0.00057590      -0.00007637      -0.00285558
O       12.31600959       1.61483510      17.24202843  F        8      -0.00036684      -0.00071816      -0.00394686
Sn      13.65140454       3.22967024      17.17296284  F        9       0.00147471       0.00219844       0.03193764
Sn      10.23855368       1.61483498      17.29794302  F       10       0.00060584       0.00046787      -0.01029132
O       10.23855403       0.00000003      18.57956262  F       11      -0.00042802      -0.00007658       0.00133162
O       13.65140461       0.00000029      19.30782007  F       12      -0.00174121      -0.00028678       0.00093731
O        8.92151796       1.61483502      20.64643965  F       13      -0.00785409      -0.00143628      -0.00200790
O       11.55558952       1.61483499      20.64644013  F       14       0.00135673      -0.00302064      -0.00335183
Sn      13.65140462       1.61483536      20.64643955  F       15       0.00463598       0.01068307       0.01549230
Sn      10.23855365       3.22967011      20.64643991  F       16       0.00600604       0.00451408       0.01034540
O       13.65140461       0.00000010      21.98505885  F       17      -0.00200386      -0.00120490      -0.01591317
O       10.23855359       3.22967028      22.71331588  F       18      -0.00858122      -0.00877704      -0.00997042
O        8.16109818       1.61483519      24.05084986  F       19      -0.00440103      -0.00196342      -0.00032938
O       12.31600974       1.61483501      24.05085043  F       20      -0.00489059      -0.01890898      -0.00497648
Sn       6.82570331       3.22967028      24.11991567  F       21       0.00672088       0.00307378      -0.02454002
Sn      10.23855358       1.61483508      23.99493530  F       22       0.01480096       0.00925098       0.02005147
O       10.23855387       0.00000012      25.32920843  F       23       0.00726032      -0.00151349       0.01447110
O        6.82471153       3.22907673      26.19137477  T       24      -0.00098012       0.00034077       0.00122619
O        8.99092508       1.61629103      27.65118645  T       25       0.00029239       0.00329370       0.00272168
O       11.49786126       1.61478769      27.66224276  T       26      -0.00592318      -0.00294949      -0.00297321
Sn      13.65848230       1.61805867      27.65947924  T       27      -0.00037709       0.00094772       0.00841644
Sn      10.24570766       0.00073520      27.35788944  T       28      -0.00910816      -0.00038735      -0.00711107
O       13.65801712       3.23311072      28.86090502  T       29      -0.00191513       0.00407882      -0.00200796
O       13.65140459       6.45934050      12.43114757  F        0      -0.00002985      -0.00001062       0.00173724
O        8.98526182       4.84450598      13.63952349  F        1      -0.01636413      -0.00001935      -0.00660842
O       11.49184604       4.84450595      13.63952293  F        2       0.01634336      -0.00001411      -0.00664352
Sn       6.82570277       4.84450527      13.63204828  F        3       0.00001314       0.00000294      -0.00382507
Sn      10.23855408       3.22967091      13.93646918  F        4       0.00005579       0.00003600      -0.00012630
O       13.65140490       6.45934046      15.10100240  F        5      -0.00035106      -0.00023457       0.00161725
O       10.23855422       3.22967052      15.96367047  F        6      -0.00031728      -0.00022041       0.00301927
O        8.16109784       4.84450546      17.24202773  F        7      -0.00083250      -0.00017225      -0.00307278
O       12.31600959       4.84450547      17.24202843  F        8      -0.00095445      -0.00103227      -0.00480723
Sn      13.65140454       6.45934061      17.17296284  F        9       0.00188619       0.00110138       0.03498267
Sn      10.23855368       4.84450535      17.29794302  F       10       0.00177353       0.00090914      -0.00891440
O       10.23855403       3.22967040      18.57956262  F       11      -0.00096516      -0.00093256       0.00050001
O       13.65140461       3.22967066      19.30782007  F       12      -0.00246151      -0.00042288      -0.00147050
O        8.92151796       4.84450538      20.64643965  F       13      -0.00953871      -0.00103398      -0.00297576
O       11.55558952       4.84450536      20.64644013  F       14      -0.00181036      -0.00364373      -0.00621076
Sn      13.65140462       4.84450573      20.64643955  F       15       0.01120274       0.00998084       0.02703851
Sn      10.23855365       6.45934047      20.64643991  F       16       0.00963173       0.00139121       0.01365854
O       13.65140461       3.22967047      21.98505885  F       17      -0.00495439      -0.01801557      -0.03356227
O       10.23855359       6.45934065      22.71331588  F       18      -0.00991800      -0.00174125      -0.01235709
O        8.16109818       4.84450555      24.05084986  F       19      -0.00666761      -0.00164451      -0.00009470
O       12.31600974       4.84450537      24.05085043  F       20      -0.03863527      -0.05083403      -0.04575022
Sn       6.82570331       6.45934065      24.11991567  F       21       0.00756798       0.00083609      -0.02398142
Sn      10.23855358       4.84450545      23.99493530  F       22       0.04597168       0.01058239       0.02418842
O       10.23855387       3.22967049      25.32920843  F       23       0.01071846       0.00167576       0.03318642
O        6.82186786       6.45922291      26.19113248  T       24       0.00119238       0.00060208       0.00175583
O        8.98986152       4.84701834      27.64529540  T       25       0.00145033      -0.00033676      -0.00102227
O       11.49621712       4.84502677      27.68445020  T       26       0.00025475      -0.00229314      -0.00204279
Sn      13.67022267       4.84757219      27.65369362  T       27      -0.00174985       0.00563656       0.00915730
Sn      10.24742843       3.23246082      27.35903896  T       28      -0.00098556      -0.00137670      -0.00199586
O       13.70999020       6.47692305      28.83919006  T       29      -0.00216867       0.00308143       0.00058997
O       13.65140459       9.68901086      12.43114757  F        0      -0.00002540       0.00002425       0.00174469
O        8.98526182       8.07417635      13.63952349  F        1      -0.01638609      -0.00001017      -0.00664231
O       11.49184604       8.07417632      13.63952293  F        2       0.01635659      -0.00000895      -0.00669310
Sn       6.82570277       8.07417564      13.63204828  F        3       0.00002143       0.00000111      -0.00382581
Sn      10.23855408       6.45934127      13.93646918  F        4       0.00013756       0.00001941       0.00015396
O       13.65140490       9.68901082      15.10100240  F        5      -0.00031724       0.00030068       0.00167990
O       10.23855422       6.45934088      15.96367047  F        6      -0.00057281      -0.00015405       0.00249469
O        8.16109784       8.07417583      17.24202773  F        7      -0.00099599       0.00001643      -0.00312924
O       12.31600959       8.07417583      17.24202843  F        8      -0.00117852       0.00009978      -0.00500331
Sn      13.65140454       9.68901097      17.17296284  F        9       0.00157461      -0.00152671       0.03437319
Sn      10.23855368       8.07417571      17.29794302  F       10       0.00251851      -0.00008069      -0.00820461
O       10.23855403       6.45934077      18.57956262  F       11      -0.00137755      -0.00047103      -0.00041357
O       13.65140461       6.45934102      19.30782007  F       12      -0.00272762       0.00065114      -0.00447644
O        8.92151796       8.07417575      20.64643965  F       13      -0.01047528       0.00030440      -0.00336853
O       11.55558952       8.07417572      20.64644013  F       14      -0.00187755       0.00057576      -0.00602612
Sn      13.65140462       8.07417609      20.64643955  F       15       0.01565373      -0.00244356       0.03137199
Sn      10.23855365       9.68901084      20.64643991  F       16       0.00911129      -0.00228326       0.01268517
O       13.65140461       6.45934083      21.98505885  F       17      -0.01320317      -0.01056343      -0.04938413
O       10.23855359       9.68901101      22.71331588  F       18      -0.00897361       0.00241678      -0.01099801
O        8.16109818       8.07417592      24.05084986  F       19      -0.00663571       0.00059881       0.00141606
O       12.31600974       8.07417574      24.05085043  F       20      -0.03969069       0.00664115      -0.03655645
Sn       6.82570331       9.68901101      24.11991567  F       21       0.00696433      -0.00249547      -0.02560005
Sn      10.23855358       8.07417581      23.99493530  F       22       0.05614166      -0.00376127       0.03773459
O       10.23855387       6.45934085      25.32920843  F       23      -0.00717281      -0.00447548       0.00748199
O        6.82274283       9.68915878      26.19111417  T       24       0.00109159       0.00010747       0.00150514
O        8.98997468       8.07331889      27.64576670  T       25       0.00283885       0.00035108       0.00203735
O       11.49616268       8.07833709      27.67881920  T       26       0.00443858      -0.00123724       0.00596909
Sn      13.68306080       8.07479620      27.61566010  T       27      -0.00876484       0.00017762       0.01468566
Sn      10.25246611       6.46089144      27.35781737  T       28       0.00052368      -0.00201598      -0.00224832
O       13.73834146       9.67706237      28.83626852  T       29      -0.00440547      -0.00414319      -0.00117022
O       13.65140459      12.91868123      12.43114757  F        0      -0.00001078       0.00002559       0.00174159
O        8.98526182      11.30384671      13.63952349  F        1      -0.01637563       0.00001752      -0.00660785
O       11.49184604      11.30384668      13.63952293  F        2       0.01635349       0.00000813      -0.00663814
Sn       6.82570277      11.30384601      13.63204828  F        3       0.00001405      -0.00001878      -0.00382864
Sn      10.23855408       9.68901164      13.93646918  F        4       0.00013250      -0.00003432       0.00013065
O       13.65140490      12.91868119      15.10100240  F        5      -0.00016024       0.00039647       0.00216007
O       10.23855422       9.68901125      15.96367047  F        6      -0.00054933       0.00016497       0.00254551
O        8.16109784      11.30384619      17.24202773  F        7      -0.00082156       0.00017966      -0.00301529
O       12.31600959      11.30384620      17.24202843  F        8      -0.00079940       0.00108590      -0.00464664
Sn      13.65140454      12.91868134      17.17296284  F        9       0.00100808      -0.00196064       0.03112017
Sn      10.23855368      11.30384608      17.29794302  F       10       0.00162834      -0.00092733      -0.00916619
O       10.23855403       9.68901113      18.57956262  F       11      -0.00132938       0.00062442      -0.00033779
O       13.65140461       9.68901139      19.30782007  F       12      -0.00207000       0.00028695      -0.00318554
O        8.92151796      11.30384611      20.64643965  F       13      -0.00927859       0.00108807      -0.00275661
O       11.55558952      11.30384609      20.64644013  F       14      -0.00133886       0.00362023      -0.00560207
Sn      13.65140462      11.30384646      20.64643955  F       15       0.00589850      -0.00978746       0.02343979
Sn      10.23855365      12.91868120      20.64643991  F       16       0.00552949      -0.00407403       0.00910181
O       13.65140461       9.68901120      21.98505885  F       17      -0.01149226       0.01428695      -0.04761556
O       10.23855359      12.91868138      22.71331588  F       18      -0.00759028       0.00777401      -0.00803468
O        8.16109818      11.30384628      24.05084986  F       19      -0.00550358       0.00248414       0.00037750
O       12.31600974      11.30384610      24.05085043  F       20      -0.03531900       0.05266663      -0.04116248
Sn       6.82570331      12.91868138      24.11991567  F       21       0.00613506      -0.00222272      -0.02508503
Sn      10.23855358      11.30384618      23.99493530  F       22       0.03990236      -0.01151877       0.01856145
O       10.23855387       9.68901122      25.32920843  F       23      -0.00808641       0.01523410       0.00258259
O        6.82488355      12.91928053      26.19141829  T       24      -0.00057325      -0.00014832       0.00069082
O        8.98869558      11.30356552      27.64565642  T       25      -0.00053719      -0.00051879      -0.00137643
O       11.49489755      11.30467562      27.68637301  T       26       0.00096133       0.00131456      -0.00161420
Sn      13.66473193      11.30456540      27.65089594  T       27      -0.00361423      -0.00815960       0.00672793
Sn      10.24696001       9.68911337      27.35742782  T       28       0.00280748       0.00072025      -0.00095233
O       13.67326579      12.91781149      28.85813914  T       29      -0.00235960      -0.00702618      -0.00192338
O       13.65140459      16.14835159      12.43114757  F        0      -0.00000644       0.00001298       0.00175071
O        8.98526182      14.53351708      13.63952349  F        1      -0.01635495       0.00001444      -0.00656627
O       11.49184604      14.53351705      13.63952293  F        2       0.01634198       0.00001081      -0.00657428
Sn       6.82570277      14.53351637      13.63204828  F        3       0.00000690      -0.00000357      -0.00383398
Sn      10.23855408      12.91868201      13.93646918  F        4       0.00005269      -0.00006099      -0.00014120
O       13.65140490      16.14835156      15.10100240  F        5      -0.00010220      -0.00001682       0.00244635
O       10.23855422      12.91868161      15.96367047  F        6      -0.00028475       0.00020375       0.00307965
O        8.16109784      14.53351656      17.24202773  F        7      -0.00056826       0.00005394      -0.00282565
O       12.31600959      14.53351656      17.24202843  F        8      -0.00024809       0.00056512      -0.00380443
Sn      13.65140454      16.14835170      17.17296284  F        9       0.00084518       0.00018555       0.02899367
Sn      10.23855368      14.53351644      17.29794302  F       10       0.00055339      -0.00035667      -0.01044662
O       10.23855403      12.91868150      18.57956262  F       11      -0.00089424       0.00084965       0.00063468
O       13.65140461      12.91868175      19.30782007  F       12      -0.00171685      -0.00023235      -0.00082052
O        8.92151796      14.53351648      20.64643965  F       13      -0.00773634       0.00106026      -0.00186865
O       11.55558952      14.53351646      20.64644013  F       14       0.00153506       0.00242588      -0.00321532
Sn      13.65140462      14.53351682      20.64643955  F       15       0.00263936      -0.00834138       0.01381375
Sn      10.23855365      16.14835157      20.64643991  F       16       0.00381936       0.00050507       0.00490909
O       13.65140461      12.91868157      21.98505885  F       17      -0.00235873       0.01576977      -0.02938181
O       10.23855359      16.14835175      22.71331588  F       18      -0.00503113      -0.00042010      -0.00793770
O        8.16109818      14.53351665      24.05084986  F       19      -0.00338733       0.00078696       0.00015783
O       12.31600974      14.53351647      24.05085043  F       20      -0.00231671       0.01151771      -0.00124054
Sn       6.82570331      16.14835174      24.11991567  F       21       0.00577172       0.00083281      -0.02383530
Sn      10.23855358      14.53351654      23.99493530  F       22       0.01365743      -0.00450969       0.01755267
O       10.23855387      12.91868158      25.32920843  F       23       0.01320145      -0.00277780       0.03751382
O        6.82625671      16.14819039      26.19169673  T       24      -0.00190143       0.00002223      -0.00068504
O        8.99088627      14.53387851      27.65271962  T       25       0.00397289      -0.00481415       0.00133209
O       11.49883123      14.53362681      27.66113964  T       26      -0.00461221       0.00110180      -0.00036043
Sn      13.65986172      14.53490018      27.65900052  T       27      -0.00492629      -0.00575459       0.00697345
Sn      10.24605373      12.91797135      27.35911864  T       28       0.00099455      -0.00061316      -0.00192988
O       13.66566653      16.15000040      28.86066577  T       29      -0.00385486      -0.00323477      -0.00938666
O       20.47710709       3.22967013      12.43114757  F        0       0.00002507       0.00000814       0.00175500
O       15.81096432       1.61483561      13.63952349  F        1      -0.01639485      -0.00007938      -0.00673860
O       18.31754854       1.61483559      13.63952293  F        2       0.01641592      -0.00007939      -0.00670677
Sn      13.65140527       1.61483491      13.63204828  F        3       0.00006946       0.00010152      -0.00345427
Sn      17.06425658       0.00000054      13.93646918  F        4      -0.00005579       0.00004248      -0.00000471
O       20.47710740       3.22967009      15.10100240  F        5       0.00022845      -0.00021609       0.00263673
O       17.06425672       0.00000015      15.96367047  F        6       0.00030066      -0.00018590       0.00270379
O       14.98680034       1.61483510      17.24202773  F        7      -0.00092462      -0.00097474      -0.00435937
O       19.14171209       1.61483510      17.24202843  F        8       0.00149697      -0.00097573      -0.00371731
Sn      20.47710704       3.22967024      17.17296284  F        9      -0.00164006       0.00125985       0.02869233
Sn      17.06425618       1.61483498      17.29794302  F       10      -0.00072155       0.00328587      -0.00558673
O       17.06425653       0.00000003      18.57956262  F       11       0.00082430      -0.00102307      -0.00159004
O       20.47710711       0.00000029      19.30782007  F       12       0.00212463      -0.00163072       0.00352979
O       15.74722046       1.61483502      20.64643965  F       13      -0.00428559      -0.00492467      -0.00462618
O       18.38129202       1.61483499      20.64644013  F       14       0.00960718      -0.00493429      -0.00275427
Sn      20.47710712       1.61483536      20.64643955  F       15      -0.00619833       0.01075150      -0.00415564
Sn      17.06425615       3.22967011      20.64643991  F       16      -0.00648847       0.01753048       0.01894816
O       20.47710711       0.00000010      21.98505885  F       17       0.00234864      -0.00952199       0.00599502
O       17.06425609       3.22967028      22.71331588  F       18       0.00988900      -0.00116920      -0.01204052
O       14.98680068       1.61483519      24.05084986  F       19      -0.01195338      -0.01612421      -0.00346655
O       19.14171224       1.61483501      24.05085043  F       20       0.04857154      -0.01749783       0.02563528
Sn      13.65140581       3.22967028      24.11991567  F       21       0.01539800       0.05941289      -0.01484536
Sn      17.06425608       1.61483508      23.99493530  F       22      -0.03082069       0.04344698       0.02745158
O       17.06425637       0.00000012      25.32920843  F       23       0.02438233      -0.01287503      -0.00327633
O       13.64455909       3.22445343      26.19075834  T       24      -0.00131921      -0.00572989      -0.00814617
O       15.81525643       1.61794921      27.65252543  T       25      -0.00245890       0.00848613      -0.00063751
O       18.32130727       1.61737800      27.65263275  T       26      -0.00279832       0.01054660      -0.00325250
Sn      20.47251110       1.62034942      27.66342380  T       27      -0.00042559       0.00308992       0.00930363
Sn      17.06434379       0.00414071      27.35547916  T       28      -0.00095878       0.00253637       0.01950669
O       20.47878319       3.22234748      28.88327721  T       29       0.00026246       0.00348935       0.00086194
O       20.47710709       6.45934050      12.43114757  F        0       0.00004368       0.00000580       0.00184321
O       15.81096432       4.84450598      13.63952349  F        1      -0.01646462      -0.00008164      -0.00702592
O       18.31754854       4.84450595      13.63952293  F        2       0.01651815      -0.00007554      -0.00697640
Sn      13.65140527       4.84450527      13.63204828  F        3       0.00014549       0.00018710      -0.00295299
Sn      17.06425658       3.22967091      13.93646918  F        4      -0.00005811       0.00018652       0.00091976
O       20.47710740       6.45934046      15.10100240  F        5       0.00040916       0.00003143       0.00251818
O       17.06425672       3.22967052      15.96367047  F        6       0.00030084      -0.00047314       0.00162269
O       14.98680034       4.84450546      17.24202773  F        7      -0.00159149      -0.00126328      -0.00535369
O       19.14171209       4.84450547      17.24202843  F        8       0.00262630      -0.00045153      -0.00432111
Sn      20.47710704       6.45934061      17.17296284  F        9      -0.00246407      -0.00027682       0.02672246
Sn      17.06425618       4.84450535      17.29794302  F       10      -0.00132948       0.00335537      -0.00046941
O       17.06425653       3.22967040      18.57956262  F       11       0.00083147      -0.00313605      -0.00224154
O       20.47710711       3.22967066      19.30782007  F       12       0.00284112       0.00097375       0.00123091
O       15.74722046       4.84450538      20.64643965  F       13      -0.00815747      -0.01244231      -0.01167990
O       18.38129202       4.84450536      20.64644013  F       14       0.02054874      -0.00857448      -0.00870852
Sn      20.47710712       4.84450573      20.64643955  F       15      -0.01432579      -0.01361271      -0.00762832
Sn      17.06425615       6.45934047      20.64643991  F       16      -0.01284560       0.00649564       0.06187738
O       20.47710711       3.22967047      21.98505885  F       17       0.00507979      -0.01033256      -0.01254797
O       17.06425609       6.45934065      22.71331588  F       18       0.02788326      -0.00394991      -0.19097418
O       14.98680068       4.84450555      24.05084986  F       19      -0.09972331      -0.05168356      -0.02003253
O       19.14171224       4.84450537      24.05085043  F       20       0.13488775      -0.02228873       0.00610802
Sn      13.65140581       6.45934065      24.11991567  F       21       0.05503294       0.01212387      -0.04197170
Sn      17.06425608       4.84450545      23.99493530  F       22      -0.04338652       0.30400801       0.30379602
O       17.06425637       3.22967049      25.32920843  F       23       0.02500143      -0.15934473      -0.19583896
O       13.57909547       6.44235843      26.18037210  T       24       0.00605195       0.00456913      -0.00238925
O       15.81005549       4.83275980      27.59549072  T       25       0.00229061      -0.01009419       0.00556047
O       18.33825747       4.83829295      27.59405143  T       26       0.00300646       0.00009162       0.00521543
Sn      20.46365779       4.82112815      27.67306381  T       27      -0.00944973       0.00140125       0.01185688
Sn      17.06584101       3.24029051      27.34448658  T       28      -0.00451667       0.00638146      -0.00115001
O       20.44598889       6.49057531      28.83876475  T       29      -0.00489767       0.02580903      -0.01326305
O       20.47710709       9.68901086      12.43114757  F        0       0.00004322       0.00002662       0.00191426
O       15.81096432       8.07417635      13.63952349  F        1      -0.01648891       0.00001187      -0.00714241
O       18.31754854       8.07417632      13.63952293  F        2       0.01659548       0.00001829      -0.00708024
Sn      13.65140527       8.07417564      13.63204828  F        3       0.00016313      -0.00001416      -0.00266629
Sn      17.06425658       6.45934127      13.93646918  F        4      -0.00011525       0.00006231       0.00197989
O       20.47710740       9.68901082      15.10100240  F        5       0.00040320       0.00030401       0.00256449
O       17.06425672       6.45934088      15.96367047  F        6       0.00042867      -0.00017329       0.00054006
O       14.98680034       8.07417583      17.24202773  F        7      -0.00173362       0.00016714      -0.00551871
O       19.14171209       8.07417583      17.24202843  F        8       0.00334436       0.00039184      -0.00332425
Sn      20.47710704       9.68901097      17.17296284  F        9      -0.00243667      -0.00153253       0.02374281
Sn      17.06425618       8.07417571      17.29794302  F       10      -0.00222401      -0.00074937       0.00077494
O       17.06425653       6.45934077      18.57956262  F       11       0.00156033      -0.00060224       0.00144996
O       20.47710711       6.45934102      19.30782007  F       12       0.00380803      -0.00010656       0.00833547
O       15.74722046       8.07417575      20.64643965  F       13      -0.01203997       0.00437172      -0.01864925
O       18.38129202       8.07417572      20.64644013  F       14       0.03208250       0.00568438      -0.01118331
Sn      20.47710712       8.07417609      20.64643955  F       15      -0.02417349      -0.02077634      -0.04577348
Sn      17.06425615       9.68901084      20.64643991  F       16      -0.01552105      -0.01832572       0.04053440
O       20.47710711       6.45934083      21.98505885  F       17       0.01643807       0.01925926      -0.00243048
O       17.06425609       9.68901101      22.71331588  F       18       0.04074136       0.02653198      -0.15306427
O       14.98680068       8.07417592      24.05084986  F       19      -0.20306380       0.01283210      -0.03787757
O       19.14171224       8.07417574      24.05085043  F       20       0.37048030       0.11234400       0.11494777
Sn      13.65140581       9.68901101      24.11991567  F       21       0.03912815      -0.02912209      -0.06285818
Sn      17.06425608       8.07417581      23.99493530  F       22      -0.15185702      -0.07243656       0.61121106
O       17.06425637       6.45934085      25.32920843  F       23       0.07003967      -0.34404892       0.10596553
O       13.58355146       9.70990219      26.18020873  T       24       0.00191562       0.00202277      -0.00317264
O       15.75793117       8.07157315      27.30222344  T       25      -0.00626530      -0.00950559      -0.00379131
O       18.40999717       8.09095497      27.29871873  T       26      -0.00056135      -0.00164483      -0.00097016
Sn      20.46225729       7.99903942      27.52117922  T       27       0.00402844       0.00313982       0.01153454
Sn      17.06967592       6.48447490      27.43251537  T       28      -0.00479098       0.00100271       0.00546497
O       20.49329775       9.68633461      28.88872123  T       29      -0.01614794      -0.01473290       0.01313019
O       20.47710709      12.91868123      12.43114757  F        0       0.00002517       0.00001239       0.00185019
O       15.81096432      11.30384671      13.63952349  F        1      -0.01643229       0.00009133      -0.00692156
O       18.31754854      11.30384668      13.63952293  F        2       0.01653826       0.00008131      -0.00685880
Sn      13.65140527      11.30384601      13.63204828  F        3       0.00011010      -0.00020051      -0.00303307
Sn      17.06425658       9.68901164      13.93646918  F        4      -0.00012647      -0.00014247       0.00170219
O       20.47710740      12.91868119      15.10100240  F        5       0.00021941       0.00012827       0.00307339
O       17.06425672       9.68901125      15.96367047  F        6       0.00050106       0.00036674       0.00058763
O       14.98680034      11.30384619      17.24202773  F        7      -0.00127888       0.00146840      -0.00497609
O       19.14171209      11.30384620      17.24202843  F        8       0.00289561       0.00124046      -0.00277738
Sn      20.47710704      12.91868134      17.17296284  F        9      -0.00158942      -0.00058411       0.02289414
Sn      17.06425618      11.30384608      17.29794302  F       10      -0.00222786      -0.00426569      -0.00337820
O       17.06425653       9.68901113      18.57956262  F       11       0.00218912       0.00277503       0.00334266
O       20.47710711       9.68901139      19.30782007  F       12       0.00369353       0.00044768       0.01090250
O       15.74722046      11.30384611      20.64643965  F       13      -0.00314406       0.01147846      -0.00669648
O       18.38129202      11.30384609      20.64644013  F       14       0.02341466       0.01039166       0.00074137
Sn      20.47710712      11.30384646      20.64643955  F       15      -0.01403627       0.00794215      -0.05451227
Sn      17.06425615      12.91868120      20.64643991  F       16      -0.01300175      -0.01106133      -0.00278508
O       20.47710711       9.68901120      21.98505885  F       17       0.01583434       0.01432132       0.03910702
O       17.06425609      12.91868138      22.71331588  F       18       0.02831440      -0.01585749       0.01326030
O       14.98680068      11.30384628      24.05084986  F       19      -0.07696263       0.05216357      -0.01648591
O       19.14171224      11.30384610      24.05085043  F       20       0.23976733      -0.04993589       0.15158734
Sn      13.65140581      12.91868138      24.11991567  F       21       0.00490924      -0.04949138      -0.03298806
Sn      17.06425608      11.30384618      23.99493530  F       22      -0.16158250      -0.29563662       0.23697320
O       17.06425637       9.68901122      25.32920843  F       23       0.05889776       0.42840990       0.05869870
O       13.65011390      12.92351178      26.19045483  T       24      -0.00132281      -0.00048887      -0.00038773
O       15.82326313      11.31890574      27.60093461  T       25       0.00402814       0.01355322       0.01610459
O       18.36047843      11.29459106      27.61515327  T       26       0.00003889       0.00060517       0.00162752
Sn      20.47624292      11.38666101      27.55429982  T       27      -0.00907148       0.00087970       0.00865272
Sn      17.04762929       9.65570562      27.42362733  T       28       0.00504164      -0.00110900      -0.02554906
O       20.48365709      12.91128126      28.85593991  T       29      -0.00401504      -0.02304350      -0.00420839
O       20.47710709      16.14835159      12.43114757  F        0       0.00001305       0.00000647       0.00177836
O       15.81096432      14.53351708      13.63952349  F        1      -0.01636606       0.00003943      -0.00667501
O       18.31754854      14.53351705      13.63952293  F        2       0.01641712       0.00003072      -0.00662555
Sn      13.65140527      14.53351637      13.63204828  F        3       0.00004439      -0.00009691      -0.00350726
Sn      17.06425658      12.91868201      13.93646918  F        4      -0.00011013      -0.00019468       0.00045729
O       20.47710740      16.14835156      15.10100240  F        5       0.00010504      -0.00020845       0.00304216
O       17.06425672      12.91868161      15.96367047  F        6       0.00042780       0.00047050       0.00216269
O       14.98680034      14.53351656      17.24202773  F        7      -0.00066847       0.00061408      -0.00415762
O       19.14171209      14.53351656      17.24202843  F        8       0.00169408      -0.00020054      -0.00315128
Sn      20.47710704      16.14835170      17.17296284  F        9      -0.00101083       0.00112611       0.02580146
Sn      17.06425618      14.53351644      17.29794302  F       10      -0.00132349      -0.00160914      -0.00702525
O       17.06425653      12.91868150      18.57956262  F       11       0.00155664       0.00198053      -0.00037025
O       20.47710711      12.91868175      19.30782007  F       12       0.00276034       0.00034191       0.01234107
O       15.74722046      14.53351648      20.64643965  F       13      -0.00135622       0.00151654      -0.00102845
O       18.38129202      14.53351646      20.64644013  F       14       0.01374984      -0.00254501       0.00237354
Sn      20.47710712      14.53351682      20.64643955  F       15      -0.00589684       0.01595755      -0.02208481
Sn      17.06425615      16.14835157      20.64643991  F       16      -0.00646846       0.00527392       0.00906351
O       20.47710711      12.91868157      21.98505885  F       17       0.00491476      -0.01406361       0.01715834
O       17.06425609      16.14835175      22.71331588  F       18       0.01024385      -0.00612839       0.00226549
O       14.98680068      14.53351665      24.05084986  F       19      -0.00006714       0.00485443      -0.00252233
O       19.14171224      14.53351647      24.05085043  F       20       0.03492427      -0.02204629       0.02369547
Sn      13.65140581      16.14835174      24.11991567  F       21       0.00385683       0.00739503      -0.02285451
Sn      17.06425608      14.53351654      23.99493530  F       22      -0.04173630       0.01785231       0.01096644
O       17.06425637      12.91868158      25.32920843  F       23       0.08403008       0.09040761      -0.05026770
O       13.65416402      16.14773407      26.19244254  T       24      -0.00111239      -0.00066954      -0.01123536
O       15.82212702      14.53330660      27.65483757  T       25       0.00104252       0.00180910      -0.00181493
O       18.33041947      14.52957674      27.65068490  T       26      -0.00090477      -0.01265864      -0.00307842
Sn      20.47625680      14.56822091      27.68084683  T       27      -0.00773625      -0.00252844      -0.00237799
Sn      17.07273117      12.91204004      27.34894531  T       28      -0.00974149      -0.00724756      -0.00330448
O       20.47538991      16.16752052      28.88518502  T       29       0.00248355      -0.00269396      -0.00693274
O       27.30280959       3.22967013      12.43114757  F        0       0.00000708       0.00000942       0.00178760
O       22.63666682       1.61483561      13.63952349  F        1      -0.01634395      -0.00001124      -0.00652327
O       25.14325104       1.61483559      13.63952293  F        2       0.01633877      -0.00001177      -0.00653098
Sn      20.47710777       1.61483491      13.63204828  F        3      -0.00007875       0.00010065      -0.00377417
Sn      23.88995908       0.00000054      13.93646918  F        4       0.00003509       0.00003388      -0.00046563
O       27.30280990       3.22967009      15.10100240  F        5       0.00001445       0.00001250       0.00306273
O       23.88995922       0.00000015      15.96367047  F        6      -0.00014414      -0.00017504       0.00369683
O       21.81250284       1.61483510      17.24202773  F        7       0.00008090      -0.00072044      -0.00315189
O       25.96741459       1.61483510      17.24202843  F        8       0.00039639      -0.00008986      -0.00261422
Sn      27.30280954       3.22967024      17.17296284  F        9      -0.00004646       0.00001760       0.02616481
Sn      23.88995868       1.61483498      17.29794302  F       10      -0.00006764       0.00048054      -0.01176754
O       23.88995902       0.00000003      18.57956262  F       11      -0.00029095      -0.00092980       0.00348498
O       27.30280961       0.00000029      19.30782007  F       12      -0.00005054      -0.00024260       0.00454778
O       22.57292296       1.61483502      20.64643965  F       13      -0.00432198      -0.00301259      -0.00053109
O       25.20699452       1.61483499      20.64644013  F       14       0.00679473      -0.00142093      -0.00066321
Sn      27.30280962       1.61483536      20.64643955  F       15      -0.00051407       0.00077841      -0.00106118
Sn      23.88995865       3.22967011      20.64643991  F       16      -0.00043797       0.00003821       0.00186600
O       27.30280961       0.00000010      21.98505885  F       17      -0.00027803      -0.00103845      -0.00211287
O       23.88995859       3.22967028      22.71331588  F       18       0.00089028      -0.00366464       0.00270024
O       21.81250318       1.61483519      24.05084986  F       19      -0.02014790      -0.01836373       0.01951972
O       25.96741474       1.61483501      24.05085043  F       20       0.00156040      -0.00173282       0.00720134
Sn      20.47710831       3.22967028      24.11991567  F       21      -0.01830559       0.03787906      -0.01498578
Sn      23.88995858       1.61483508      23.99493530  F       22       0.00669527       0.00851252      -0.01122265
O       23.88995887       0.00000012      25.32920843  F       23      -0.02072705      -0.00641852       0.02057266
O       20.48755330       3.22572359      26.19839194  T       24       0.00165036      -0.00357332      -0.00144160
O       22.63078753       1.61626469      27.65846985  T       25       0.00911656       0.00171726      -0.00567921
O       25.14289737       1.61722387      27.64848229  T       26       0.00155070       0.00447297       0.00188157
Sn      27.30303597       1.61650491      27.66168995  T       27      -0.00270084       0.00076398       0.00059518
Sn      23.88816585       0.00668249      27.35557437  T       28       0.01500933      -0.00198529      -0.00096029
O       27.29532094       3.23148860      28.86216758  T       29       0.00222463       0.00058505      -0.00213963
O       27.30280959       6.45934050      12.43114757  F        0       0.00000411      -0.00000495       0.00180972
O       22.63666682       4.84450598      13.63952349  F        1      -0.01635534       0.00002470      -0.00652422
O       25.14325104       4.84450595      13.63952293  F        2       0.01632664       0.00001087      -0.00652044
Sn      20.47710777       4.84450527      13.63204828  F        3      -0.00017422      -0.00004312      -0.00351864
Sn      23.88995908       3.22967091      13.93646918  F        4      -0.00001094      -0.00001237      -0.00031722
O       27.30280990       6.45934046      15.10100240  F        5      -0.00001191       0.00002641       0.00310194
O       23.88995922       3.22967052      15.96367047  F        6       0.00004701      -0.00004995       0.00343536
O       21.81250284       4.84450546      17.24202773  F        7       0.00052267      -0.00002559      -0.00357819
O       25.96741459       4.84450547      17.24202843  F        8       0.00042470       0.00009003      -0.00268791
Sn      27.30280954       6.45934061      17.17296284  F        9       0.00016061      -0.00020271       0.02593277
Sn      23.88995868       4.84450535      17.29794302  F       10      -0.00064741      -0.00047822      -0.01156335
O       23.88995902       3.22967040      18.57956262  F       11       0.00024272      -0.00006784       0.00265269
O       27.30280961       3.22967066      19.30782007  F       12       0.00018172      -0.00015533       0.00439133
O       22.57292296       4.84450538      20.64643965  F       13      -0.00529239       0.00309050       0.00132605
O       25.20699452       4.84450536      20.64644013  F       14       0.00572216       0.00175579       0.00172162
Sn      27.30280962       4.84450573      20.64643955  F       15      -0.00035504      -0.00104803      -0.00230556
Sn      23.88995865       6.45934047      20.64643991  F       16       0.00171793      -0.00853450      -0.01427761
O       27.30280961       3.22967047      21.98505885  F       17       0.00029640       0.00024837      -0.00258492
O       23.88995859       6.45934065      22.71331588  F       18      -0.01574338       0.01940194       0.02063957
O       21.81250318       4.84450555      24.05084986  F       19       0.03457375      -0.02745153      -0.03800241
O       25.96741474       4.84450537      24.05085043  F       20      -0.00446990       0.00615662       0.00621621
Sn      20.47710831       6.45934065      24.11991567  F       21      -0.07437727      -0.21720755      -0.46582660
Sn      23.88995858       4.84450545      23.99493530  F       22      -0.01336869      -0.03901614      -0.01911126
O       23.88995887       3.22967049      25.32920843  F       23      -0.02442060       0.01310110       0.04090890
O       20.56716913       6.40409520      26.16598139  T       24      -0.00201450      -0.00890059      -0.01276535
O       22.62785034       4.84632658      27.68170254  T       25      -0.01098594       0.00270323      -0.00176655
O       25.13964469       4.84396234      27.64084745  T       26      -0.00163803       0.00280888      -0.00204197
Sn      27.30028839       4.84449489      27.65984364  T       27       0.00857999       0.00374989       0.00119245
Sn      23.88695712       3.22922868      27.35676034  T       28       0.00503852       0.00105816       0.00787258
O       27.28780416       6.46007185      28.86061933  T       29       0.00542087      -0.00072854      -0.00173837
O       27.30280959       9.68901086      12.43114757  F        0      -0.00000054       0.00002242       0.00181711
O       22.63666682       8.07417635      13.63952349  F        1      -0.01638606       0.00001749      -0.00647730
O       25.14325104       8.07417632      13.63952293  F        2       0.01631176       0.00000926      -0.00646668
Sn      20.47710777       8.07417564      13.63204828  F        3      -0.00022158      -0.00008877      -0.00355473
Sn      23.88995908       6.45934127      13.93646918  F        4      -0.00004364      -0.00003832      -0.00041515
O       27.30280990       9.68901082      15.10100240  F        5      -0.00004055       0.00002223       0.00314832
O       23.88995922       6.45934088      15.96367047  F        6       0.00019182       0.00001778       0.00335476
O       21.81250284       8.07417583      17.24202773  F        7       0.00058068       0.00039114      -0.00238225
O       25.96741459       8.07417583      17.24202843  F        8       0.00030097       0.00012764      -0.00244686
Sn      27.30280954       9.68901097      17.17296284  F        9       0.00044765      -0.00013194       0.02542871
Sn      23.88995868       8.07417571      17.29794302  F       10      -0.00059526      -0.00066242      -0.01324979
O       23.88995902       6.45934077      18.57956262  F       11       0.00000803       0.00141443       0.00360062
O       27.30280961       6.45934102      19.30782007  F       12      -0.00025171       0.00069422       0.00480778
O       22.57292296       8.07417575      20.64643965  F       13      -0.00849159       0.00508604       0.00987130
O       25.20699452       8.07417572      20.64644013  F       14       0.00266064       0.00372302       0.00506855
Sn      27.30280962       8.07417609      20.64643955  F       15       0.00348268      -0.00225959      -0.00563465
Sn      23.88995865       9.68901084      20.64643991  F       16       0.00500641      -0.00219854      -0.03246585
O       27.30280961       6.45934083      21.98505885  F       17      -0.00110059       0.00301549       0.00118333
O       23.88995859       9.68901101      22.71331588  F       18      -0.02898856       0.00235672       0.05275228
O       21.81250318       8.07417592      24.05084986  F       19      -0.07751408       0.12731820       0.11992083
O       25.96741474       8.07417574      24.05085043  F       20      -0.02197687       0.00802430       0.01033643
Sn      20.47710831       9.68901101      24.11991567  F       21      -0.05661367      -0.02454656      -0.35062039
Sn      23.88995858       8.07417581      23.99493530  F       22       0.08349449      -0.05516595      -0.04630862
O       23.88995887       6.45934085      25.32920843  F       23      -0.04101675       0.05006520       0.11372092
O       20.56268614       9.71181030      26.23634794  T       24       0.01076622      -0.00396948       0.01857077
O       22.60349071       8.09593874      27.65618367  T       25      -0.01971368       0.00323291       0.00371844
O       25.12618000       8.06585316      27.65876789  T       26      -0.00392103       0.00164582      -0.00303302
Sn      27.30587443       8.07325697      27.66069255  T       27      -0.00065173      -0.00022283      -0.00142217
Sn      23.87666220       6.45485592      27.35845896  T       28      -0.00360918       0.00259157      -0.00393453
O       27.27492910       9.68986968      28.85825048  T       29       0.00041783      -0.00097591      -0.00577718
O       27.30280959      12.91868123      12.43114757  F        0       0.00000033       0.00001893       0.00180000
O       22.63666682      11.30384671      13.63952349  F        1      -0.01638135      -0.00002005      -0.00641712
O       25.14325104      11.30384668      13.63952293  F        2       0.01629925       0.00000200      -0.00643057
Sn      20.47710777      11.30384601      13.63204828  F        3      -0.00017381      -0.00012242      -0.00392628
Sn      23.88995908       9.68901164      13.93646918  F        4      -0.00002401      -0.00003613      -0.00066102
O       27.30280990      12.91868119      15.10100240  F        5      -0.00004445      -0.00001366       0.00314873
O       23.88995922       9.68901125      15.96367047  F        6       0.00010990       0.00017328       0.00339729
O       21.81250284      11.30384619      17.24202773  F        7       0.00020292       0.00081067      -0.00204499
O       25.96741459      11.30384620      17.24202843  F        8       0.00012419       0.00009429      -0.00234154
Sn      27.30280954      12.91868134      17.17296284  F        9       0.00038340       0.00017324       0.02547933
Sn      23.88995868      11.30384608      17.29794302  F       10       0.00029391      -0.00038825      -0.01418624
O       23.88995902       9.68901113      18.57956262  F       11      -0.00058396       0.00060547       0.00568479
O       27.30280961       9.68901139      19.30782007  F       12      -0.00088132       0.00016474       0.00604594
O       22.57292296      11.30384611      20.64643965  F       13      -0.00906417      -0.00093077       0.01043248
O       25.20699452      11.30384609      20.64644013  F       14       0.00135469      -0.00234797       0.00582934
Sn      27.30280962      11.30384646      20.64643955  F       15       0.00424360       0.00129996      -0.00597311
Sn      23.88995865      12.91868120      20.64643991  F       16       0.00567662       0.00579137      -0.01882891
O       27.30280961       9.68901120      21.98505885  F       17      -0.00260880       0.00058654       0.00222488
O       23.88995859      12.91868138      22.71331588  F       18      -0.01873754      -0.01310866       0.02439084
O       21.81250318      11.30384628      24.05084986  F       19      -0.08327968      -0.06759375       0.11643383
O       25.96741474      11.30384610      24.05085043  F       20      -0.02200218      -0.00422907       0.01004722
Sn      20.47710831      12.91868138      24.11991567  F       21      -0.01758241       0.17361733      -0.46599472
Sn      23.88995858      11.30384618      23.99493530  F       22       0.09677184       0.03966170      -0.06283011
O       23.88995887       9.68901122      25.32920843  F       23      -0.03024074       0.01249809       0.05742720
O       20.48866730      12.96202298      26.17496855  T       24       0.00437141       0.00804630       0.00613260
O       22.61055746      11.29329890      27.66529052  T       25      -0.01155374      -0.00085488      -0.00275645
O       25.13255669      11.31125465      27.65299391  T       26      -0.01216090       0.00396128      -0.00189473
Sn      27.30757135      11.30607453      27.66021149  T       27       0.00812650      -0.00281148      -0.00219429
Sn      23.90345385       9.69027974      27.35375248  T       28      -0.00868365       0.00187097      -0.00233853
O       27.28586732      12.92001237      28.85986614  T       29       0.00272357      -0.00032581      -0.00117755
O       27.30280959      16.14835159      12.43114757  F        0       0.00000520       0.00001293       0.00179237
O       22.63666682      14.53351708      13.63952349  F        1      -0.01634878      -0.00003188      -0.00645035
O       25.14325104      14.53351705      13.63952293  F        2       0.01631427      -0.00002119      -0.00647494
Sn      20.47710777      14.53351637      13.63204828  F        3      -0.00007777       0.00012786      -0.00407702
Sn      23.88995908      12.91868201      13.93646918  F        4       0.00004580      -0.00000272      -0.00073290
O       27.30280990      16.14835156      15.10100240  F        5       0.00000598      -0.00000836       0.00308102
O       23.88995922      12.91868161      15.96367047  F        6      -0.00009199       0.00003712       0.00394942
O       21.81250284      14.53351656      17.24202773  F        7      -0.00016123      -0.00043933      -0.00259247
O       25.96741459      14.53351656      17.24202843  F        8       0.00015090      -0.00022549      -0.00243884
Sn      27.30280954      16.14835170      17.17296284  F        9       0.00007980       0.00013958       0.02588606
Sn      23.88995868      14.53351644      17.29794302  F       10       0.00056523       0.00106705      -0.01307170
O       23.88995902      12.91868150      18.57956262  F       11      -0.00046051      -0.00103627       0.00461078
O       27.30280961      12.91868175      19.30782007  F       12      -0.00055385      -0.00048851       0.00501254
O       22.57292296      14.53351648      20.64643965  F       13      -0.00856398      -0.00436297       0.00450468
O       25.20699452      14.53351646      20.64644013  F       14       0.00388608      -0.00179745       0.00286541
Sn      27.30280962      14.53351682      20.64643955  F       15       0.00140921       0.00143284      -0.00289990
Sn      23.88995865      16.14835157      20.64643991  F       16       0.00171501       0.00501979      -0.00359037
O       27.30280961      12.91868157      21.98505885  F       17      -0.00189182      -0.00247131       0.00175134
O       23.88995859      16.14835175      22.71331588  F       18      -0.00324375      -0.00704337       0.00457302
O       21.81250318      14.53351665      24.05084986  F       19      -0.00667569      -0.01759201       0.01516036
O       25.96741474      14.53351647      24.05085043  F       20      -0.00730503      -0.00599053       0.00713584
Sn      20.47710831      16.14835174      24.11991567  F       21      -0.00782860       0.03315174      -0.02285902
Sn      23.88995858      14.53351654      23.99493530  F       22       0.02106420       0.04618721      -0.02486096
O       23.88995887      12.91868158      25.32920843  F       23      -0.05799743      -0.04623609       0.12804969
O       20.47964522      16.14852343      26.20023934  T       24       0.00067144      -0.00369100       0.00116169
O       22.62711221      14.53423542      27.65549314  T       25      -0.00537896      -0.00591948      -0.00000003
O       25.14093834      14.54101829      27.64821297  T       26      -0.00453782      -0.01064411       0.00093268
Sn      27.30454793      14.53649355      27.66068108  T       27      -0.00223191      -0.00306806       0.00125206
Sn      23.88954008      12.92698855      27.35878856  T       28      -0.00118920      -0.00330625       0.00420016
O       27.29802548      16.14991466      28.86217674  T       29       0.00369972      -0.00054960       0.00021404
O       34.12851209       3.22967013      12.43114757  F        0      -0.00000259       0.00000440       0.00178075
O       29.46236932       1.61483561      13.63952349  F        1      -0.01633283      -0.00000256      -0.00651594
O       31.96895354       1.61483559      13.63952293  F        2       0.01632646      -0.00000299      -0.00651574
Sn      27.30281027       1.61483491      13.63204828  F        3      -0.00001568      -0.00000327      -0.00387368
Sn      30.71566158       0.00000054      13.93646918  F        4       0.00000381      -0.00001619      -0.00043023
O       34.12851240       3.22967009      15.10100240  F        5      -0.00000906       0.00001124       0.00305492
O       30.71566172       0.00000015      15.96367047  F        6      -0.00001525       0.00000649       0.00355347
O       28.63820534       1.61483510      17.24202773  F        7      -0.00031210      -0.00004041      -0.00263923
O       32.79311709       1.61483510      17.24202843  F        8       0.00034332      -0.00000915      -0.00264174
Sn      34.12851204       3.22967024      17.17296284  F        9       0.00006827      -0.00000229       0.02620049
Sn      30.71566118       1.61483498      17.29794302  F       10       0.00002265       0.00002823      -0.01186666
O       30.71566152       0.00000003      18.57956262  F       11      -0.00005247      -0.00004951       0.00291082
O       34.12851211       0.00000029      19.30782007  F       12      -0.00012722      -0.00005156       0.00426887
O       29.39862546       1.61483502      20.64643965  F       13      -0.00604445      -0.00019157       0.00036118
O       32.03269702       1.61483499      20.64644013  F       14       0.00574130      -0.00008018       0.00031714
Sn      34.12851212       1.61483536      20.64643955  F       15       0.00046745       0.00011894      -0.00018665
Sn      30.71566115       3.22967011      20.64643991  F       16       0.00024293      -0.00000906      -0.00120194
O       34.12851211       0.00000010      21.98505885  F       17      -0.00035109      -0.00021946      -0.00378088
O       30.71566109       3.22967028      22.71331588  F       18      -0.00036843      -0.00009776      -0.00108621
O       28.63820568       1.61483519      24.05084986  F       19      -0.00105441      -0.00061648       0.00391839
O       32.79311724       1.61483501      24.05085043  F       20      -0.00075573      -0.00004208       0.00390933
Sn      27.30281081       3.22967028      24.11991567  F       21       0.00447351      -0.00300414      -0.03384462
Sn      30.71566108       1.61483508      23.99493530  F       22       0.00182388       0.00105312       0.00877630
O       30.71566137       0.00000012      25.32920843  F       23      -0.00355373      -0.00016389       0.01627268
O       27.30475991       3.23057503      26.19187990  T       24       0.00009396      -0.00089583      -0.00172478
O       29.46188308       1.61574130      27.65740171  T       25       0.00414500      -0.00069566      -0.00147758
O       31.97074174       1.61549163      27.65393524  T       26      -0.00261745       0.00068259       0.00070434
Sn      34.13109758       1.61509627      27.66113105  T       27      -0.00090268      -0.00015538      -0.00046024
Sn      30.71658104       0.00112864      27.35739013  T       28       0.00226577      -0.00197849      -0.00105476
O       34.12975557       3.23003048      28.86163953  T       29       0.00154124      -0.00147313       0.00022495
O       34.12851209       6.45934050      12.43114757  F        0      -0.00000258      -0.00000072       0.00179136
O       29.46236932       4.84450598      13.63952349  F        1      -0.01632398      -0.00000557      -0.00651699
O       31.96895354       4.84450595      13.63952293  F        2       0.01631883      -0.00000385      -0.00651399
Sn      27.30281027       4.84450527      13.63204828  F        3       0.00000060      -0.00000141      -0.00390038
Sn      30.71566158       3.22967091      13.93646918  F        4       0.00000407      -0.00000249      -0.00042152
O       34.12851240       6.45934046      15.10100240  F        5      -0.00001125       0.00000452       0.00306290
O       30.71566172       3.22967052      15.96367047  F        6      -0.00000845      -0.00001369       0.00354508
O       28.63820534       4.84450546      17.24202773  F        7      -0.00034194       0.00003148      -0.00262523
O       32.79311709       4.84450547      17.24202843  F        8       0.00034004       0.00001616      -0.00263833
Sn      34.12851204       6.45934061      17.17296284  F        9       0.00007396      -0.00002849       0.02614827
Sn      30.71566118       4.84450535      17.29794302  F       10      -0.00000555      -0.00003874      -0.01190231
O       30.71566152       3.22967040      18.57956262  F       11      -0.00002150      -0.00000574       0.00285896
O       34.12851211       3.22967066      19.30782007  F       12      -0.00012356       0.00000739       0.00424226
O       29.39862546       4.84450538      20.64643965  F       13      -0.00611758       0.00017115       0.00040408
O       32.03269702       4.84450536      20.64644013  F       14       0.00581854       0.00014330       0.00030250
Sn      34.12851212       4.84450573      20.64643955  F       15       0.00056060      -0.00017740      -0.00018769
Sn      30.71566115       6.45934047      20.64643991  F       16       0.00043433      -0.00049672      -0.00180119
O       34.12851211       3.22967047      21.98505885  F       17      -0.00035723       0.00007139      -0.00392763
O       30.71566109       6.45934065      22.71331588  F       18      -0.00152307       0.00097391      -0.00000547
O       28.63820568       4.84450555      24.05084986  F       19      -0.00314116       0.00624606       0.00746910
O       32.79311724       4.84450537      24.05085043  F       20      -0.00121376       0.00111401       0.00388891
Sn      27.30281081       6.45934065      24.11991567  F       21       0.00886537      -0.01293996      -0.04107966
Sn      30.71566108       4.84450545      23.99493530  F       22       0.00253623      -0.00197711       0.00810690
O       30.71566137       3.22967049      25.32920843  F       23      -0.00277415       0.00159290       0.01424684
O       27.30101568       6.46230650      26.19213956  T       24       0.00080507       0.00495144      -0.00181282
O       29.46060267       4.84591918      27.65572914  T       25       0.00207087       0.00269216       0.00022827
O       31.97044212       4.84410955      27.65528564  T       26      -0.00284144       0.00283483      -0.00016777
Sn      34.13136849       4.84483745      27.66112779  T       27      -0.00000566      -0.00205920       0.00065112
Sn      30.71616354       3.23031957      27.35735343  T       28       0.00031125       0.00066013      -0.00042224
O       34.12917383       6.45960635      28.86177447  T       29       0.00163767      -0.00178771      -0.00102746
O       34.12851209       9.68901086      12.43114757  F        0      -0.00000223       0.00002160       0.00179702
O       29.46236932       8.07417635      13.63952349  F        1      -0.01633584      -0.00000832      -0.00650901
O       31.96895354       8.07417632      13.63952293  F        2       0.01633081      -0.00000866      -0.00651336
Sn      27.30281027       8.07417564      13.63204828  F        3       0.00002411      -0.00001118      -0.00395024
Sn      30.71566158       6.45934127      13.93646918  F        4       0.00000286      -0.00000476      -0.00042367
O       34.12851240       9.68901082      15.10100240  F        5      -0.00001166       0.00000219       0.00306487
O       30.71566172       6.45934088      15.96367047  F        6      -0.00001072       0.00000112       0.00356819
O       28.63820534       8.07417583      17.24202773  F        7      -0.00041626       0.00006597      -0.00254910
O       32.79311709       8.07417583      17.24202843  F        8       0.00034148       0.00002067      -0.00261121
Sn      34.12851204       9.68901097      17.17296284  F        9       0.00008863      -0.00000276       0.02606864
Sn      30.71566118       8.07417571      17.29794302  F       10       0.00005524      -0.00005570      -0.01204026
O       30.71566152       6.45934077      18.57956262  F       11      -0.00002948       0.00007354       0.00286224
O       34.12851211       6.45934102      19.30782007  F       12      -0.00014961       0.00004983       0.00428810
O       29.39862546       8.07417575      20.64643965  F       13      -0.00646808       0.00050175       0.00101786
O       32.03269702       8.07417572      20.64644013  F       14       0.00565949       0.00025244       0.00045807
Sn      34.12851212       8.07417609      20.64643955  F       15       0.00071394      -0.00021447      -0.00042014
Sn      30.71566115       9.68901084      20.64643991  F       16       0.00095282      -0.00022232      -0.00277153
O       34.12851211       6.45934083      21.98505885  F       17      -0.00045779       0.00026654      -0.00387502
O       30.71566109       9.68901101      22.71331588  F       18      -0.00253711       0.00032666       0.00124421
O       28.63820568       8.07417592      24.05084986  F       19      -0.00598781       0.00853193       0.01276584
O       32.79311724       8.07417574      24.05085043  F       20      -0.00229852       0.00101617       0.00396885
Sn      27.30281081       9.68901101      24.11991567  F       21       0.01771037      -0.00256644      -0.05467053
Sn      30.71566108       8.07417581      23.99493530  F       22       0.00901865      -0.00347175       0.00496721
O       30.71566137       6.45934085      25.32920843  F       23      -0.00481109       0.00443363       0.01826665
O       27.29028167       9.68917081      26.19258655  T       24       0.00453142      -0.00045022       0.00036430
O       29.46258397       8.07636401      27.65689511  T       25      -0.00006202       0.00092627       0.00139601
O       31.97166467       8.07287025      27.65483785  T       26      -0.00343117       0.00178491       0.00025904
Sn      34.13241491       8.07394716      27.66057144  T       27       0.00035305      -0.00103641       0.00329351
Sn      30.71727135       6.45896306      27.35751721  T       28      -0.00249584       0.00241709      -0.00341552
O       34.12826857       9.68871051      28.86142070  T       29       0.00070119      -0.00001598      -0.00150841
O       34.12851209      12.91868123      12.43114757  F        0      -0.00000123       0.00001761       0.00178403
O       29.46236932      11.30384671      13.63952349  F        1      -0.01633769       0.00000616      -0.00651207
O       31.96895354      11.30384668      13.63952293  F        2       0.01633298       0.00000313      -0.00651599
Sn      27.30281027      11.30384601      13.63204828  F        3       0.00002790      -0.00001053      -0.00395897
Sn      30.71566158       9.68901164      13.93646918  F        4       0.00000561      -0.00001325      -0.00044292
O       34.12851240      12.91868119      15.10100240  F        5      -0.00001324       0.00000441       0.00305790
O       30.71566172       9.68901125      15.96367047  F        6      -0.00002495      -0.00000114       0.00359821
O       28.63820534      11.30384619      17.24202773  F        7      -0.00048134       0.00001270      -0.00249198
O       32.79311709      11.30384620      17.24202843  F        8       0.00034678      -0.00001053      -0.00259867
Sn      34.12851204      12.91868134      17.17296284  F        9       0.00007892       0.00001884       0.02607870
Sn      30.71566118      11.30384608      17.29794302  F       10       0.00009586       0.00000924      -0.01209315
O       30.71566152       9.68901113      18.57956262  F       11      -0.00007292       0.00002668       0.00293698
O       34.12851211       9.68901139      19.30782007  F       12      -0.00016498       0.00003451       0.00434645
O       29.39862546      11.30384611      20.64643965  F       13      -0.00648875      -0.00021853       0.00109654
O       32.03269702      11.30384609      20.64644013  F       14       0.00557269      -0.00008200       0.00054037
Sn      34.12851212      11.30384646      20.64643955  F       15       0.00073677       0.00004978      -0.00054635
Sn      30.71566115      12.91868120      20.64643991  F       16       0.00066665       0.00039957      -0.00250207
O       34.12851211       9.68901120      21.98505885  F       17      -0.00054198       0.00012960      -0.00383277
O       30.71566109      12.91868138      22.71331588  F       18      -0.00181019      -0.00110686       0.00093054
O       28.63820568      11.30384628      24.05084986  F       19      -0.00655934      -0.00700607       0.01509367
O       32.79311724      11.30384610      24.05085043  F       20      -0.00267343      -0.00065400       0.00439844
Sn      27.30281081      12.91868138      24.11991567  F       21       0.01187389       0.01225760      -0.04298064
Sn      30.71566108      11.30384618      23.99493530  F       22       0.00983567       0.00098254       0.00375046
O       30.71566137       9.68901122      25.32920843  F       23      -0.00652879       0.00143883       0.01930101
O       27.29976971      12.91771063      26.19218658  T       24       0.00039334      -0.00443204      -0.00217837
O       29.46363293      11.30309511      27.65664549  T       25       0.00055471      -0.00179025       0.00118059
O       31.97224977      11.30468817      27.65509542  T       26      -0.00369653      -0.00092227      -0.00034270
Sn      34.13252679      11.30355892      27.66081240  T       27       0.00115756       0.00165378       0.00204262
Sn      30.72182243       9.68899763      27.35754428  T       28      -0.00298556      -0.00037274      -0.00464010
O       34.12888476      12.91832915      28.86145077  T       29       0.00167525       0.00257792      -0.00027382
O       34.12851209      16.14835159      12.43114757  F        0      -0.00000198       0.00000823       0.00178361
O       29.46236932      14.53351708      13.63952349  F        1      -0.01633385       0.00000840      -0.00651795
O       31.96895354      14.53351705      13.63952293  F        2       0.01633212       0.00000612      -0.00651730
Sn      27.30281027      14.53351637      13.63204828  F        3       0.00000659       0.00000386      -0.00391173
Sn      30.71566158      12.91868201      13.93646918  F        4       0.00000464      -0.00002679      -0.00043011
O       34.12851240      16.14835156      15.10100240  F        5      -0.00001186       0.00000519       0.00305581
O       30.71566172      12.91868161      15.96367047  F        6      -0.00002262       0.00000327       0.00358649
O       28.63820534      14.53351656      17.24202773  F        7      -0.00041485      -0.00006022      -0.00251763
O       32.79311709      14.53351656      17.24202843  F        8       0.00034088      -0.00001484      -0.00261592
Sn      34.12851204      16.14835170      17.17296284  F        9       0.00006798       0.00001398       0.02616377
Sn      30.71566118      14.53351644      17.29794302  F       10       0.00005623       0.00006147      -0.01198966
O       30.71566152      12.91868150      18.57956262  F       11      -0.00007001      -0.00004993       0.00293441
O       34.12851211      12.91868175      19.30782007  F       12      -0.00015416      -0.00004764       0.00434318
O       29.39862546      14.53351648      20.64643965  F       13      -0.00620225      -0.00032021       0.00049907
O       32.03269702      14.53351646      20.64644013  F       14       0.00566817      -0.00026073       0.00043378
Sn      34.12851212      14.53351682      20.64643955  F       15       0.00058248       0.00025449      -0.00039558
Sn      30.71566115      16.14835157      20.64643991  F       16       0.00038156       0.00037305      -0.00145779
O       34.12851211      12.91868157      21.98505885  F       17      -0.00047737      -0.00022886      -0.00369903
O       30.71566109      16.14835175      22.71331588  F       18      -0.00042624      -0.00041552      -0.00070946
O       28.63820568      14.53351665      24.05084986  F       19      -0.00280644      -0.00556441       0.00816632
O       32.79311724      14.53351647      24.05085043  F       20      -0.00201209      -0.00126506       0.00421063
Sn      27.30281081      16.14835174      24.11991567  F       21       0.00589355       0.00660517      -0.03235523
Sn      30.71566108      14.53351654      23.99493530  F       22       0.00323917       0.00349568       0.00655397
O       30.71566137      12.91868158      25.32920843  F       23      -0.00436088      -0.00307881       0.01749754
O       27.30431499      16.14825233      26.19220534  T       24      -0.00006847       0.00007181      -0.00393707
O       29.46258895      14.53281756      27.65564724  T       25      -0.00050279      -0.00190300       0.00149939
O       31.97124631      14.53526907      27.65508192  T       26      -0.00331345      -0.00475944      -0.00053870
Sn      34.13143788      14.53347320      27.66109457  T       27       0.00098786       0.00206820       0.00051275
Sn      30.71972665      12.91958421      27.35725820  T       28      -0.00345218      -0.00120021      -0.00095475
O       34.12988459      16.14841937      28.86145931  T       29       0.00141972       0.00119541       0.00131738
O       17.07480131       6.91449210      29.56111462  T        0       0.00087412      -0.01848486       0.00465259
O       17.19859496       9.22007083      29.57732018  T        0       0.00851594       0.00047708       0.00118434
C       16.97833906       8.02912599      31.62834564  T        0      -0.00943138       0.01374507      -0.00155350
C       17.08309901       8.05997821      30.12232672  T        0       0.00224650       0.00402152      -0.00738692
H       16.06882434       7.48741122      31.91690438  T        0       0.00161098      -0.01583658      -0.00213332
H       17.83459730       7.47588626      32.03919579  T        0      -0.02150736      -0.01089130       0.00278788
H       16.95880925       9.04953276      32.01999630  T        0      -0.01076229       0.02216554       0.01334753
H       19.75183637       9.70340676      29.52481130  T        0       0.00615600      -0.00232325      -0.00400856
