760
Lattice="34.12851249988762 0.0 0.0 0.0 16.14835182838364 0.0 0.0 0.0 41.29287865270102" Properties=species:S:1:pos:R:3:move_mask:L:1:spacegroup_kinds:I:1:forces:R:3 spacegroup="P 1" unit_cell=conventional occupancy="_JSON {\"0\": {\"O\": 1.0}, \"1\": {\"O\": 1.0}, \"2\": {\"O\": 1.0}, \"3\": {\"Sn\": 1.0}, \"4\": {\"Sn\": 1.0}, \"5\": {\"O\": 1.0}, \"6\": {\"O\": 1.0}, \"7\": {\"O\": 1.0}, \"8\": {\"O\": 1.0}, \"9\": {\"Sn\": 1.0}, \"10\": {\"Sn\": 1.0}, \"11\": {\"O\": 1.0}, \"12\": {\"O\": 1.0}, \"13\": {\"O\": 1.0}, \"14\": {\"O\": 1.0}, \"15\": {\"Sn\": 1.0}, \"16\": {\"Sn\": 1.0}, \"17\": {\"O\": 1.0}, \"18\": {\"O\": 1.0}, \"19\": {\"O\": 1.0}, \"20\": {\"O\": 1.0}, \"21\": {\"Sn\": 1.0}, \"22\": {\"Sn\": 1.0}, \"23\": {\"O\": 1.0}, \"24\": {\"O\": 1.0}, \"25\": {\"O\": 1.0}, \"26\": {\"O\": 1.0}, \"27\": {\"Sn\": 1.0}, \"28\": {\"Sn\": 1.0}, \"29\": {\"O\": 1.0}}" energy=-4696.8251953125 free_energy=-4696.8251953125 stress="-0.001165924477390945 9.128558531301678e-07 -2.274347389175091e-05 9.128558531301678e-07 0.007489215116947889 1.0196492894465337e-06 -2.274347389175091e-05 1.0196492894465337e-06 -4.1978477383963764e-05" pbc="T T T"
O        6.82570209       3.22967013      12.43114757  F        0       0.00000965       0.00001203       0.00178611
O        2.15955932       1.61483561      13.63952349  F        1      -0.01633906      -0.00000774      -0.00651955
O        4.66614354       1.61483559      13.63952293  F        2       0.01633242      -0.00000877      -0.00651562
Sn       0.00000027       1.61483491      13.63204828  F        3       0.00001190      -0.00000233      -0.00386536
Sn       3.41285158       0.00000054      13.93646918  F        4      -0.00000598      -0.00001432      -0.00044012
O        6.82570240       3.22967009      15.10100240  F        5       0.00002178       0.00004029       0.00314063
O        3.41285172       0.00000015      15.96367047  F        6       0.00001521       0.00000348       0.00358605
O        1.33539534       1.61483510      17.24202773  F        7      -0.00033826       0.00000306      -0.00258743
O        5.49030709       1.61483510      17.24202843  F        8       0.00039847       0.00001765      -0.00249854
Sn       6.82570204       3.22967024      17.17296284  F        9      -0.00028273      -0.00019237       0.02549343
Sn       3.41285118       1.61483498      17.29794302  F       10      -0.00008200      -0.00002146      -0.01217235
O        3.41285153       0.00000003      18.57956262  F       11       0.00007493       0.00000909       0.00315138
O        6.82570211       0.00000029      19.30782007  F       12       0.00005107       0.00001161       0.00496151
O        2.09581546       1.61483502      20.64643965  F       13      -0.00542601       0.00005033       0.00066122
O        4.72988702       1.61483499      20.64644013  F       14       0.00620701       0.00008126       0.00075344
Sn       6.82570212       1.61483536      20.64643955  F       15      -0.00090685      -0.00078030      -0.00370431
Sn       3.41285115       3.22967011      20.64643991  F       16      -0.00078309      -0.00032742      -0.00296172
O        6.82570211       0.00000010      21.98505885  F       17       0.00048357       0.00003253      -0.00105383
O        3.41285109       3.22967028      22.71331588  F       18       0.00174380       0.00024692       0.00133514
O        1.33539568       1.61483519      24.05084986  F       19       0.00219540      -0.00027443       0.00596618
O        5.49030724       1.61483501      24.05085043  F       20       0.00315233       0.00534093       0.01038445
Sn       0.00000081       3.22967028      24.11991567  F       21      -0.00697027       0.00002330      -0.02965744
Sn       3.41285108       1.61483508      23.99493530  F       22      -0.00413847      -0.00111622       0.00528014
O        3.41285137       0.00000012      25.32920843  F       23       0.00411662       0.00047209       0.01718555
O       -0.00161327       3.23026189      26.19164693  T       24       0.00083967      -0.00147156       0.00009930
O        2.15546842       1.61493390      27.65322413  T       25      -0.00479263       0.00120654       0.00457734
O        4.66422567       1.61639867      27.65659460  T       26       0.00092521      -0.00006980      -0.00211804
Sn       6.82185421       1.61593659      27.66066267  T       27      -0.00037434      -0.00282007       0.00072834
Sn       3.40916969       0.00020248      27.35726799  T       28      -0.00252862      -0.00015096       0.00149375
O        6.83678310       3.23233825      28.85980547  T       29       0.00184213      -0.00233501       0.00277168
O        6.82570209       6.45934050      12.43114757  F        0       0.00001556      -0.00000046       0.00180650
O        2.15955932       4.84450598      13.63952349  F        1      -0.01633248      -0.00000015      -0.00651790
O        4.66614354       4.84450595      13.63952293  F        2       0.01632881      -0.00000038      -0.00651240
Sn       0.00000027       4.84450527      13.63204828  F        3       0.00001131       0.00000807      -0.00388339
Sn       3.41285158       3.22967091      13.93646918  F        4      -0.00000748      -0.00000529      -0.00043607
O        6.82570240       6.45934046      15.10100240  F        5       0.00005605       0.00002154       0.00319195
O        3.41285172       3.22967052      15.96367047  F        6       0.00001762      -0.00000512       0.00360297
O        1.33539534       4.84450546      17.24202773  F        7      -0.00032987       0.00001284      -0.00257374
O        5.49030709       4.84450547      17.24202843  F        8       0.00049686       0.00005564      -0.00245120
Sn       6.82570204       6.45934061      17.17296284  F        9      -0.00061014      -0.00011999       0.02505869
Sn       3.41285118       4.84450535      17.29794302  F       10      -0.00011393      -0.00003390      -0.01226882
O        3.41285153       3.22967040      18.57956262  F       11       0.00006701       0.00002925       0.00312440
O        6.82570211       3.22967066      19.30782007  F       12       0.00047507       0.00041439       0.00529628
O        2.09581546       4.84450538      20.64643965  F       13      -0.00541404       0.00019111       0.00068220
O        4.72988702       4.84450536      20.64644013  F       14       0.00662443       0.00037376       0.00125166
Sn       6.82570212       4.84450573      20.64643955  F       15      -0.00461296      -0.00247611      -0.00737692
Sn       3.41285115       6.45934047      20.64643991  F       16      -0.00131161      -0.00029809      -0.00372829
O        6.82570211       3.22967047      21.98505885  F       17       0.00173634       0.00257682       0.00232442
O        3.41285109       6.45934065      22.71331588  F       18       0.00330458       0.00056136       0.00250616
O        1.33539568       4.84450555      24.05084986  F       19       0.00344123       0.00029871       0.00493770
O        5.49030724       4.84450537      24.05085043  F       20       0.00708540       0.01193017       0.01409081
Sn       0.00000081       6.45934065      24.11991567  F       21      -0.00668692      -0.00020685      -0.03124212
Sn       3.41285108       4.84450545      23.99493530  F       22      -0.00895616      -0.00263457       0.00208486
O        3.41285137       3.22967049      25.32920843  F       23       0.00487229       0.00688777       0.02131702
O       -0.00016894       6.45958265      26.19152924  T       24      -0.00036659      -0.00147407       0.00088811
O        2.15492428       4.84356847      27.65738647  T       25      -0.00070146       0.00322043      -0.00231371
O        4.66448397       4.84814281      27.65698435  T       26       0.00468928      -0.00000749      -0.00143958
Sn       6.82176468       4.84526177      27.65992889  T       27       0.00138805      -0.00721636      -0.00120610
Sn       3.40892595       3.23044344      27.35744597  T       28      -0.00110739       0.00098339       0.00014269
O        6.85778148       6.46197147      28.85703044  T       29       0.00529975      -0.00415761      -0.00271308
O        6.82570209       9.68901086      12.43114757  F        0       0.00001448       0.00001842       0.00180835
O        2.15955932       8.07417635      13.63952349  F        1      -0.01634175      -0.00001209      -0.00651556
O        4.66614354       8.07417632      13.63952293  F        2       0.01633295      -0.00001041      -0.00650603
Sn       0.00000027       8.07417564      13.63204828  F        3       0.00000216      -0.00000288      -0.00389245
Sn       3.41285158       6.45934127      13.93646918  F        4      -0.00000897      -0.00001079      -0.00044799
O        6.82570240       9.68901082      15.10100240  F        5       0.00005657      -0.00001767       0.00318533
O        3.41285172       6.45934088      15.96367047  F        6       0.00003148       0.00000007       0.00362654
O        1.33539534       8.07417583      17.24202773  F        7      -0.00032969       0.00000117      -0.00256509
O        5.49030709       8.07417583      17.24202843  F        8       0.00053313      -0.00000448      -0.00243482
Sn       6.82570204       9.68901097      17.17296284  F        9      -0.00061267       0.00014710       0.02505234
Sn       3.41285118       8.07417571      17.29794302  F       10      -0.00016460       0.00001857      -0.01232110
O        3.41285153       6.45934077      18.57956262  F       11       0.00009099       0.00003729       0.00311921
O        6.82570211       6.45934102      19.30782007  F       12       0.00129974       0.00049151       0.00659120
O        2.09581546       8.07417575      20.64643965  F       13      -0.00531547      -0.00002625       0.00070743
O        4.72988702       8.07417572      20.64644013  F       14       0.00693373      -0.00003408       0.00165661
Sn       6.82570212       8.07417609      20.64643955  F       15      -0.00750866       0.00003677      -0.00989771
Sn       3.41285115       9.68901084      20.64643991  F       16      -0.00131607       0.00036662      -0.00366662
O        6.82570211       6.45934083      21.98505885  F       17       0.00403024       0.00245007       0.00578050
O        3.41285109       9.68901101      22.71331588  F       18       0.00334046      -0.00072448       0.00242348
O        1.33539568       8.07417592      24.05084986  F       19       0.00337303       0.00011581       0.00439886
O        5.49030724       8.07417574      24.05085043  F       20       0.01086412       0.00006477       0.01885613
Sn       0.00000081       9.68901101      24.11991567  F       21      -0.00650265       0.00041873      -0.03139694
Sn       3.41285108       8.07417581      23.99493530  F       22      -0.01560716       0.00024967       0.00017371
O        3.41285137       6.45934085      25.32920843  F       23       0.00695987       0.00330670       0.02392158
O       -0.00012240       9.68907343      26.19153540  T       24      -0.00064455       0.00050273       0.00102407
O        2.15337394       8.07440521      27.65457448  T       25       0.00182697       0.00021382       0.00197054
O        4.66356461       8.07448195      27.65953310  T       26       0.00511518       0.00032700      -0.00461698
Sn       6.82068283       8.07459761      27.65695894  T       27       0.00244276       0.00012323       0.00693113
Sn       3.40486066       6.45985519      27.35758122  T       28       0.00129068       0.00073945       0.00021112
O        6.85817748       9.68731511      28.85684574  T       29       0.00454204       0.00512145      -0.00174934
O        6.82570209      12.91868123      12.43114757  F        0       0.00000863       0.00001429       0.00179052
O        2.15955932      11.30384671      13.63952349  F        1      -0.01634386       0.00000179      -0.00652141
O        4.66614354      11.30384668      13.63952293  F        2       0.01633742       0.00000529      -0.00651377
Sn       0.00000027      11.30384601      13.63204828  F        3       0.00000606      -0.00001001      -0.00387695
Sn       3.41285158       9.68901164      13.93646918  F        4      -0.00000683      -0.00000708      -0.00044250
O        6.82570240      12.91868119      15.10100240  F        5       0.00001980      -0.00001768       0.00313354
O        3.41285172       9.68901125      15.96367047  F        6       0.00002916      -0.00001429       0.00362356
O        1.33539534      11.30384619      17.24202773  F        7      -0.00034016      -0.00001300      -0.00257327
O        5.49030709      11.30384620      17.24202843  F        8       0.00049768      -0.00005378      -0.00245216
Sn       6.82570204      12.91868134      17.17296284  F        9      -0.00027118       0.00018502       0.02550279
Sn       3.41285118      11.30384608      17.29794302  F       10      -0.00010738       0.00004388      -0.01224526
O        3.41285153       9.68901113      18.57956262  F       11       0.00008985      -0.00005569       0.00311698
O        6.82570211       9.68901139      19.30782007  F       12       0.00130222      -0.00050543       0.00659560
O        2.09581546      11.30384611      20.64643965  F       13      -0.00543349      -0.00020957       0.00065897
O        4.72988702      11.30384609      20.64644013  F       14       0.00665956      -0.00039739       0.00123928
Sn       6.82570212      11.30384646      20.64643955  F       15      -0.00464403       0.00251164      -0.00738186
Sn       3.41285115      12.91868120      20.64643991  F       16      -0.00076600       0.00031645      -0.00286361
O        6.82570211       9.68901120      21.98505885  F       17       0.00407080      -0.00243858       0.00579823
O        3.41285109      12.91868138      22.71331588  F       18       0.00179420      -0.00028941       0.00118031
O        1.33539568      11.30384628      24.05084986  F       19       0.00330664      -0.00044268       0.00464990
O        5.49030724      11.30384610      24.05085043  F       20       0.00736651      -0.01168995       0.01417734
Sn       0.00000081      12.91868138      24.11991567  F       21      -0.00650320      -0.00005891      -0.02994353
Sn       3.41285108      11.30384618      23.99493530  F       22      -0.00904734       0.00285698       0.00255564
O        3.41285137       9.68901122      25.32920843  F       23       0.00700979      -0.00227993       0.02517480
O       -0.00117215      12.91811827      26.19161563  T       24      -0.00061820       0.00205703       0.00054592
O        2.15460978      11.30507677      27.65759772  T       25       0.00177547      -0.00296561      -0.00284622
O        4.66442193      11.30093586      27.65722586  T       26       0.00470331      -0.00051386      -0.00165758
Sn       6.82222449      11.30416036      27.65999339  T       27      -0.00183968       0.00638153      -0.00090349
Sn       3.40487023       9.68911453      27.35770545  T       28       0.00177987      -0.00113386      -0.00085866
O        6.83720923      12.91712225      28.86003691  T       29       0.00151793       0.00061645       0.00151950
O        6.82570209      16.14835159      12.43114757  F        0       0.00000266       0.00001064       0.00178790
O        2.15955932      14.53351708      13.63952349  F        1      -0.01633507       0.00000861      -0.00652060
O        4.66614354      14.53351705      13.63952293  F        2       0.01633513       0.00000602      -0.00651591
Sn       0.00000027      14.53351637      13.63204828  F        3       0.00000827       0.00000474      -0.00386640
Sn       3.41285158      12.91868201      13.93646918  F        4      -0.00000129      -0.00002699      -0.00043565
O        6.82570240      16.14835156      15.10100240  F        5      -0.00001629       0.00001345       0.00309193
O        3.41285172      12.91868161      15.96367047  F        6       0.00001999       0.00001147       0.00359793
O        1.33539534      14.53351656      17.24202773  F        7      -0.00033735       0.00000436      -0.00259054
O        5.49030709      14.53351656      17.24202843  F        8       0.00039084      -0.00001395      -0.00250460
Sn       6.82570204      16.14835170      17.17296284  F        9      -0.00005615      -0.00000862       0.02562258
Sn       3.41285118      14.53351644      17.29794302  F       10      -0.00008230       0.00000201      -0.01215589
O        3.41285153      12.91868150      18.57956262  F       11       0.00006504      -0.00001863       0.00311130
O        6.82570211      12.91868175      19.30782007  F       12       0.00048025      -0.00041913       0.00529926
O        2.09581546      14.53351648      20.64643965  F       13      -0.00544002      -0.00002755       0.00064346
O        4.72988702      14.53351646      20.64644013  F       14       0.00622416      -0.00005816       0.00074421
Sn       6.82570212      14.53351682      20.64643955  F       15      -0.00092922       0.00077927      -0.00370948
Sn       3.41285115      16.14835157      20.64643991  F       16      -0.00065318      -0.00003391      -0.00269424
O        6.82570211      12.91868157      21.98505885  F       17       0.00172825      -0.00248526       0.00232714
O        3.41285109      16.14835175      22.71331588  F       18       0.00089966       0.00002637       0.00049688
O        1.33539568      14.53351665      24.05084986  F       19       0.00212154       0.00053707       0.00569957
O        5.49030724      14.53351647      24.05085043  F       20       0.00337552      -0.00493557       0.01031114
Sn       0.00000081      16.14835174      24.11991567  F       21      -0.00792727      -0.00012320      -0.03058638
Sn       3.41285108      14.53351654      23.99493530  F       22      -0.00425585       0.00067059       0.00561465
O        3.41285137      12.91868158      25.32920843  F       23       0.00462946      -0.00601456       0.02309363
O       -0.00398888      16.14831323      26.19147330  T       24       0.00523637       0.00060286       0.00095260
O        2.15515404      14.53395233      27.65334244  T       25      -0.00344306      -0.00199425       0.00416107
O        4.66399567      14.53246233      27.65680088  T       26       0.00221205      -0.00063492      -0.00208598
Sn       6.82198035      14.53337737      27.66080953  T       27      -0.00085743       0.00210763       0.00057706
Sn       3.40843551      12.91839243      27.35761802  T       28       0.00085931      -0.00103898      -0.00143862
O        6.82857593      16.14888171      28.86048206  T       29       0.00736315      -0.00062046      -0.00149179
O       13.65140459       3.22967013      12.43114757  F        0      -0.00002500       0.00002000       0.00182736
O        8.98526182       1.61483561      13.63952349  F        1      -0.01631904       0.00001557      -0.00649964
O       11.49184604       1.61483559      13.63952293  F        2       0.01635665       0.00002400      -0.00646471
Sn       6.82570277       1.61483491      13.63204828  F        3      -0.00001079      -0.00001239      -0.00389630
Sn      10.23855408       0.00000054      13.93646918  F        4      -0.00006189      -0.00001868      -0.00047201
O       13.65140490       3.22967009      15.10100240  F        5      -0.00026590      -0.00004606       0.00318307
O       10.23855422       0.00000015      15.96367047  F        6       0.00024931       0.00001114       0.00377321
O        8.16109784       1.61483510      17.24202773  F        7      -0.00023036       0.00012604      -0.00240876
O       12.31600959       1.61483510      17.24202843  F        8       0.00028813       0.00017212      -0.00244024
Sn      13.65140454       3.22967024      17.17296284  F        9       0.00172752       0.00022881       0.02178980
Sn      10.23855368       1.61483498      17.29794302  F       10      -0.00064745      -0.00065165      -0.01323260
O       10.23855403       0.00000003      18.57956262  F       11       0.00063099       0.00000523       0.00447701
O       13.65140461       0.00000029      19.30782007  F       12      -0.00196757      -0.00000901       0.00579694
O        8.92151796       1.61483502      20.64643965  F       13      -0.00428393       0.00101503       0.00278170
O       11.55558952       1.61483499      20.64644013  F       14       0.00993281       0.00299312       0.00491949
Sn      13.65140462       1.61483536      20.64643955  F       15       0.00603638      -0.01167716      -0.03053082
Sn      10.23855365       3.22967011      20.64643991  F       16      -0.00805217      -0.00788774      -0.01793617
O       13.65140461       0.00000010      21.98505885  F       17      -0.00175014       0.00000808       0.01638801
O       10.23855359       3.22967028      22.71331588  F       18       0.01746053       0.01227614       0.02291494
O        8.16109818       1.61483519      24.05084986  F       19       0.00498872       0.00671846       0.01047900
O       12.31600974       1.61483501      24.05085043  F       20       0.01962045      -0.00471543       0.02171391
Sn       6.82570331       3.22967028      24.11991567  F       21      -0.01599879      -0.01287646      -0.05012496
Sn      10.23855358       1.61483508      23.99493530  F       22      -0.03000995      -0.02998672      -0.03473710
O       10.23855387       0.00000012      25.32920843  F       23       0.02785943       0.00063426       0.02904487
O        6.82564383       3.23450748      26.19191550  T       24       0.00176825      -0.00459236       0.00139964
O        8.98466203       1.61566037      27.64404508  T       25      -0.00163102       0.00031791       0.00353073
O       11.50032946       1.61121490      27.65937585  T       26       0.00153425      -0.00199540      -0.00208196
Sn      13.65280480       1.58906440      27.67738927  T       27       0.00026232      -0.00226849      -0.00834832
Sn      10.23010567       0.00032215      27.35452184  T       28       0.00671146      -0.00142119       0.00498289
O       13.64600473       3.22125680      28.87987962  T       29       0.00023437       0.00633350       0.00475132
O       13.65140459       6.45934050      12.43114757  F        0      -0.00004669       0.00000168       0.00194383
O        8.98526182       4.84450598      13.63952349  F        1      -0.01628289       0.00002009      -0.00643703
O       11.49184604       4.84450595      13.63952293  F        2       0.01638347       0.00003865      -0.00640917
Sn       6.82570277       4.84450527      13.63204828  F        3      -0.00004560      -0.00001317      -0.00395432
Sn      10.23855408       3.22967091      13.93646918  F        4      -0.00004905      -0.00005439      -0.00062227
O       13.65140490       6.45934046      15.10100240  F        5      -0.00046318      -0.00007752       0.00297379
O       10.23855422       3.22967052      15.96367047  F        6       0.00014701       0.00002828       0.00385004
O        8.16109784       4.84450546      17.24202773  F        7      -0.00010386       0.00010914      -0.00228356
O       12.31600959       4.84450547      17.24202843  F        8       0.00021958       0.00005173      -0.00130284
Sn      13.65140454       6.45934061      17.17296284  F        9       0.00254734       0.00021245       0.01710466
Sn      10.23855368       4.84450535      17.29794302  F       10      -0.00066070      -0.00059952      -0.01487383
O       10.23855403       3.22967040      18.57956262  F       11       0.00078242       0.00139845       0.00536302
O       13.65140461       3.22967066      19.30782007  F       12      -0.00232072       0.00155593       0.01237952
O        8.92151796       4.84450538      20.64643965  F       13      -0.00005971       0.00431978       0.00754182
O       11.55558952       4.84450536      20.64644013  F       14       0.01428953       0.00652231       0.01265525
Sn      13.65140462       4.84450573      20.64643955  F       15       0.01344393      -0.02796864      -0.06612390
Sn      10.23855365       6.45934047      20.64643991  F       16      -0.01283550      -0.00629503      -0.04478091
O       13.65140461       3.22967047      21.98505885  F       17      -0.00584250       0.01270430       0.01617839
O       10.23855359       6.45934065      22.71331588  F       18       0.04053131       0.01668324       0.06535158
O        8.16109818       4.84450555      24.05084986  F       19       0.02482969       0.01488275       0.01413532
O       12.31600974       4.84450537      24.05085043  F       20       0.06757529       0.06119621       0.07259892
Sn       6.82570331       6.45934065      24.11991567  F       21      -0.02983567      -0.01155303      -0.07494950
Sn      10.23855358       4.84450545      23.99493530  F       22      -0.08634993      -0.07219587      -0.07035283
O       10.23855387       3.22967049      25.32920843  F       23       0.06040717       0.05035997       0.13448358
O        6.83374513       6.46211087      26.19217536  T       24       0.00661828      -0.00102032       0.00095773
O        9.00384672       4.83870101      27.65231800  T       25       0.00161958      -0.00134878      -0.00718351
O       11.53143880       4.85420354      27.67011169  T       26       0.00169797       0.00864053       0.00652353
Sn      13.67715069       4.75103349      27.59801222  T       27      -0.01713763       0.00969416      -0.00514443
Sn      10.24699084       3.22298734      27.35939964  T       28       0.00357870       0.00674246      -0.01037753
O       13.61308716       6.48955047      28.85871365  T       29      -0.00314787       0.01033027      -0.00811249
O       13.65140459       9.68901086      12.43114757  F        0      -0.00004339       0.00001130       0.00194693
O        8.98526182       8.07417635      13.63952349  F        1      -0.01627943      -0.00001183      -0.00640655
O       11.49184604       8.07417632      13.63952293  F        2       0.01641092      -0.00000914      -0.00639813
Sn       6.82570277       8.07417564      13.63204828  F        3      -0.00006401       0.00000059      -0.00398725
Sn      10.23855408       6.45934127      13.93646918  F        4      -0.00000480      -0.00002367      -0.00078213
O       13.65140490       9.68901082      15.10100240  F        5      -0.00046259       0.00007517       0.00297159
O       10.23855422       6.45934088      15.96367047  F        6      -0.00000205      -0.00005618       0.00357516
O        8.16109784       8.07417583      17.24202773  F        7      -0.00007223      -0.00000865      -0.00214136
O       12.31600959       8.07417583      17.24202843  F        8       0.00022279       0.00000535      -0.00007109
Sn      13.65140454       9.68901097      17.17296284  F        9       0.00253746      -0.00020562       0.01707020
Sn      10.23855368       8.07417571      17.29794302  F       10      -0.00052882       0.00001090      -0.01608217
O       10.23855403       6.45934077      18.57956262  F       11       0.00153823       0.00103851       0.00785992
O       13.65140461       6.45934102      19.30782007  F       12      -0.00306949      -0.00003544       0.02014417
O        8.92151796       8.07417575      20.64643965  F       13       0.00222365      -0.00002038       0.00972540
O       11.55558952       8.07417572      20.64644013  F       14       0.01740027      -0.00000526       0.01964779
Sn      13.65140462       8.07417609      20.64643955  F       15       0.02320525      -0.00004164      -0.09521748
Sn      10.23855365       9.68901084      20.64643991  F       16      -0.01286531       0.00632288      -0.04471321
O       13.65140461       6.45934083      21.98505885  F       17      -0.01732144       0.01191254       0.06246572
O       10.23855359       9.68901101      22.71331588  F       18       0.04045102      -0.01690511       0.06511982
O        8.16109818       8.07417592      24.05084986  F       19       0.03988580      -0.00033532       0.01785344
O       12.31600974       8.07417574      24.05085043  F       20       0.16665652      -0.00069507       0.22303410
Sn       6.82570331       9.68901101      24.11991567  F       21      -0.02968941       0.01160341      -0.07496329
Sn      10.23855358       8.07417581      23.99493530  F       22      -0.17988786       0.00055413      -0.09262245
O       10.23855387       6.45934085      25.32920843  F       23       0.06265138       0.02136744       0.10296111
O        6.83423540       9.68657016      26.19210419  T       24       0.00527260       0.00215323       0.00180370
O        9.01607362       8.07476439      27.65242925  T       25      -0.00894380      -0.00459530       0.01696588
O       11.54659197       8.07409539      27.63313267  T       26      -0.00075219       0.00132846       0.00040421
Sn      13.66296727       8.07433535      27.47186817  T       27       0.00964877      -0.00807825      -0.01639423
Sn      10.24172262       6.45278225      27.35302531  T       28       0.00049378       0.01171762       0.00354791
O       13.61077664       9.65739322      28.86057284  T       29       0.00486486      -0.00177906      -0.02147296
O       13.65140459      12.91868123      12.43114757  F        0      -0.00002321       0.00000793       0.00183070
O        8.98526182      11.30384671      13.63952349  F        1      -0.01629946      -0.00002233      -0.00644256
O       11.49184604      11.30384668      13.63952293  F        2       0.01639259      -0.00004489      -0.00641581
Sn       6.82570277      11.30384601      13.63204828  F        3      -0.00004427       0.00000125      -0.00395212
Sn      10.23855408       9.68901164      13.93646918  F        4      -0.00000556       0.00001422      -0.00077927
O       13.65140490      12.91868119      15.10100240  F        5      -0.00026620       0.00007266       0.00317973
O       10.23855422       9.68901125      15.96367047  F        6       0.00000041       0.00004097       0.00358003
O        8.16109784      11.30384619      17.24202773  F        7      -0.00011262      -0.00010715      -0.00227975
O       12.31600959      11.30384620      17.24202843  F        8       0.00023013      -0.00004958      -0.00129751
Sn      13.65140454      12.91868134      17.17296284  F        9       0.00172308      -0.00022580       0.02175368
Sn      10.23855368      11.30384608      17.29794302  F       10      -0.00066200       0.00061381      -0.01487156
O       10.23855403       9.68901113      18.57956262  F       11       0.00153950      -0.00104835       0.00787313
O       13.65140461       9.68901139      19.30782007  F       12      -0.00306585       0.00005367       0.02020069
O        8.92151796      11.30384611      20.64643965  F       13      -0.00006663      -0.00431757       0.00752830
O       11.55558952      11.30384609      20.64644013  F       14       0.01433998      -0.00652188       0.01264335
Sn      13.65140462      11.30384646      20.64643955  F       15       0.01339312       0.02799332      -0.06609930
Sn      10.23855365      12.91868120      20.64643991  F       16      -0.00807193       0.00790896      -0.01789455
O       13.65140461       9.68901120      21.98505885  F       17      -0.01729495      -0.01203886       0.06201786
O       10.23855359      12.91868138      22.71331588  F       18       0.01743852      -0.01227427       0.02287472
O        8.16109818      11.30384628      24.05084986  F       19       0.02469954      -0.01392599       0.01422395
O       12.31600974      11.30384610      24.05085043  F       20       0.06729107      -0.06207279       0.07226856
Sn       6.82570331      12.91868138      24.11991567  F       21      -0.01635152       0.01288207      -0.04963289
Sn      10.23855358      11.30384618      23.99493530  F       22      -0.08600301       0.07180671      -0.06984109
O       10.23855387       9.68901122      25.32920843  F       23       0.06301826      -0.02054661       0.10544090
O        6.82525377      12.91445211      26.19202065  T       24       0.00315754       0.00377699       0.00123352
O        9.00422830      11.31052099      27.65250733  T       25       0.00194764       0.00027317      -0.00740102
O       11.53166311      11.29419662      27.67010096  T       26      -0.00033800      -0.01003684       0.00589417
Sn      13.67638117      11.39732181      27.59775189  T       27      -0.01106581      -0.01956809      -0.00523752
Sn      10.24180633       9.69601568      27.35329070  T       28      -0.00036353      -0.01168140      -0.00070563
O       13.64434669      12.92670559      28.87936158  T       29       0.00294955      -0.00194848       0.00807208
O       13.65140459      16.14835159      12.43114757  F        0      -0.00001034       0.00001466       0.00177956
O        8.98526182      14.53351708      13.63952349  F        1      -0.01632431      -0.00001153      -0.00650492
O       11.49184604      14.53351705      13.63952293  F        2       0.01635981      -0.00002168      -0.00646802
Sn       6.82570277      14.53351637      13.63204828  F        3      -0.00000640      -0.00000048      -0.00389710
Sn      10.23855408      12.91868201      13.93646918  F        4      -0.00004784       0.00002288      -0.00060534
O       13.65140490      16.14835156      15.10100240  F        5      -0.00013470       0.00001464       0.00322020
O       10.23855422      12.91868161      15.96367047  F        6       0.00014819      -0.00002588       0.00385359
O        8.16109784      14.53351656      17.24202773  F        7      -0.00023367      -0.00011680      -0.00241203
O       12.31600959      14.53351656      17.24202843  F        8       0.00029284      -0.00017934      -0.00244002
Sn      13.65140454      16.14835170      17.17296284  F        9       0.00115844      -0.00000849       0.02429388
Sn      10.23855368      14.53351644      17.29794302  F       10      -0.00065022       0.00063017      -0.01322857
O       10.23855403      12.91868150      18.57956262  F       11       0.00078663      -0.00139588       0.00538312
O       13.65140461      12.91868175      19.30782007  F       12      -0.00231563      -0.00157354       0.01242276
O        8.92151796      14.53351648      20.64643965  F       13      -0.00427656      -0.00100365       0.00277508
O       11.55558952      14.53351646      20.64644013  F       14       0.00993520      -0.00301289       0.00490510
Sn      13.65140462      14.53351682      20.64643955  F       15       0.00599173       0.01170190      -0.03052742
Sn      10.23855365      16.14835157      20.64643991  F       16      -0.00496171      -0.00000118      -0.00686248
O       13.65140461      12.91868157      21.98505885  F       17      -0.00582675      -0.01264014       0.01607456
O       10.23855359      16.14835175      22.71331588  F       18       0.00786353      -0.00004341       0.01159086
O        8.16109818      14.53351665      24.05084986  F       19       0.00489035      -0.00664371       0.01075566
O       12.31600974      14.53351647      24.05085043  F       20       0.02004930       0.00590577       0.02185929
Sn       6.82570331      16.14835174      24.11991567  F       21      -0.00962840       0.00010736      -0.04467325
Sn      10.23855358      14.53351654      23.99493530  F       22      -0.02972538       0.02996683      -0.03463928
O       10.23855387      12.91868158      25.32920843  F       23       0.06052082      -0.04969031       0.13491625
O        6.82529299      16.14868973      26.19158724  T       24       0.00002445      -0.00129597       0.00314629
O        8.98527528      14.53286179      27.64426742  T       25      -0.00670591       0.00438983       0.00376797
O       11.50074451      14.53782322      27.65900765  T       26       0.00033543       0.00160379      -0.00232494
Sn      13.65289455      14.55954463      27.67747128  T       27      -0.00108999      -0.00383916      -0.01322898
Sn      10.24759002      12.92599340      27.35942240  T       28       0.00360832      -0.00863302      -0.01138142
O       13.65790471      16.14814412      28.89903996  T       29      -0.00696927       0.00438825       0.00287330
O       20.47710709       3.22967013      12.43114757  F        0       0.00002081      -0.00000138       0.00171673
O       15.81096432       1.61483561      13.63952349  F        1      -0.01644081      -0.00005236      -0.00667977
O       18.31754854       1.61483559      13.63952293  F        2       0.01637831      -0.00005862      -0.00673623
Sn      13.65140527       1.61483491      13.63204828  F        3       0.00008822      -0.00007281      -0.00403228
Sn      17.06425658       0.00000054      13.93646918  F        4       0.00009317      -0.00001833       0.00009453
O       20.47710740       3.22967009      15.10100240  F        5       0.00020286      -0.00041452       0.00196451
O       17.06425672       0.00000015      15.96367047  F        6      -0.00046199       0.00001442       0.00258513
O       14.98680034       1.61483510      17.24202773  F        7      -0.00200969      -0.00007713      -0.00291769
O       19.14171209       1.61483510      17.24202843  F        8       0.00071730      -0.00072486      -0.00429545
Sn      20.47710704       3.22967024      17.17296284  F        9      -0.00101579       0.00203237       0.03117883
Sn      17.06425618       1.61483498      17.29794302  F       10       0.00156674       0.00168010      -0.00733539
O       17.06425653       0.00000003      18.57956262  F       11      -0.00135131       0.00000504      -0.00003278
O       20.47710711       0.00000029      19.30782007  F       12       0.00132781       0.00000555       0.00086450
O       15.74722046       1.61483502      20.64643965  F       13      -0.01510062       0.00224014       0.00281316
O       18.38129202       1.61483499      20.64644013  F       14       0.00023781      -0.00096439      -0.00144441
Sn      20.47710712       1.61483536      20.64643955  F       15      -0.00214329       0.00794310       0.01566537
Sn      17.06425615       3.22967011      20.64643991  F       16       0.01621089       0.00905157       0.00244759
O       20.47710711       0.00000010      21.98505885  F       17       0.00173195      -0.00000132      -0.01921781
O       17.06425609       3.22967028      22.71331588  F       18      -0.03160064       0.00953440      -0.00870451
O       14.98680068       1.61483519      24.05084986  F       19      -0.05870505       0.00553463       0.03531673
O       19.14171224       1.61483501      24.05085043  F       20       0.00280623      -0.01513281      -0.00835903
Sn      13.65140581       3.22967028      24.11991567  F       21       0.01699991      -0.13306345      -0.32706386
Sn      17.06425608       1.61483508      23.99493530  F       22       0.06262783       0.01561233       0.02249824
O       17.06425637       0.00000012      25.32920843  F       23      -0.03381607      -0.00067591       0.03795752
O       13.62644982       3.18649622      26.18558301  T       24       0.00216082      -0.00517651       0.01039988
O       15.80009986       1.61746533      27.65139921  T       25      -0.00102499       0.00247804       0.00132900
O       18.31197585       1.61305527      27.65834671  T       26       0.00030664      -0.00282641       0.00229872
Sn      20.47527304       1.61589935      27.65746350  T       27       0.00084122      -0.00230993       0.00118262
Sn      17.06564068      -0.00016784      27.35823148  T       28       0.00437309       0.00176294      -0.00662079
O       20.47072745       3.22927159      28.86024012  T       29      -0.00363579       0.00032121      -0.00202280
O       20.47710709       6.45934050      12.43114757  F        0       0.00003364      -0.00000975       0.00171870
O       15.81096432       4.84450598      13.63952349  F        1      -0.01656330      -0.00007489      -0.00691620
O       18.31754854       4.84450595      13.63952293  F        2       0.01643023      -0.00008827      -0.00699068
Sn      13.65140527       4.84450527      13.63204828  F        3       0.00019971      -0.00002636      -0.00393513
Sn      17.06425658       3.22967091      13.93646918  F        4       0.00013367       0.00015427       0.00074512
O       20.47710740       6.45934046      15.10100240  F        5       0.00033007      -0.00028119       0.00155735
O       17.06425672       3.22967052      15.96367047  F        6      -0.00056005      -0.00041404       0.00204134
O       14.98680034       4.84450546      17.24202773  F        7      -0.00339672      -0.00039443      -0.00174744
O       19.14171209       4.84450547      17.24202843  F        8       0.00126585      -0.00120156      -0.00441314
Sn      20.47710704       6.45934061      17.17296284  F        9      -0.00126683       0.00132625       0.03260984
Sn      17.06425618       4.84450535      17.29794302  F       10       0.00277695       0.00253708      -0.00600273
O       17.06425653       3.22967040      18.57956262  F       11      -0.00196448      -0.00075882       0.00188319
O       20.47710711       3.22967066      19.30782007  F       12       0.00118172       0.00116260      -0.00043597
O       15.74722046       4.84450538      20.64643965  F       13      -0.02963992      -0.00519137       0.00042408
O       18.38129202       4.84450536      20.64644013  F       14       0.00249387      -0.00932600      -0.00820852
Sn      20.47710712       4.84450573      20.64643955  F       15      -0.00462698       0.00706656       0.02758539
Sn      17.06425615       6.45934047      20.64643991  F       16       0.02411435       0.00920884       0.04481768
O       20.47710711       3.22967047      21.98505885  F       17       0.00357361      -0.01744796      -0.03778607
O       17.06425609       6.45934065      22.71331588  F       18      -0.05806693      -0.00440334      -0.17899173
O       14.98680068       4.84450555      24.05084986  F       19      -0.26405591       0.04014646       0.11875468
O       19.14171224       4.84450537      24.05085043  F       20       0.09947236      -0.06779758      -0.03012085
Sn      13.65140581       6.45934065      24.11991567  F       21       0.07582216      -0.20681968      -0.53176129
Sn      17.06425608       4.84450545      23.99493530  F       22       0.16696212       0.35784724       0.36573789
O       17.06425637       3.22967049      25.32920843  F       23      -0.07251814      -0.19296749      -0.22716872
O       13.54826462       6.39763676      26.21969191  T       24       0.00538648       0.00217521      -0.00523842
O       15.76628316       4.82884544      27.55575640  T       25       0.00576130       0.00686598      -0.00912364
O       18.31511521       4.81407322      27.56719503  T       26       0.00414640       0.00516407      -0.00711778
Sn      20.45182456       4.84414302      27.65436395  T       27       0.01114531       0.00029596      -0.00351247
Sn      17.06296822       3.23272504      27.34187180  T       28       0.00237567       0.00445830      -0.00299954
O       20.41302390       6.47158780      28.83520558  T       29      -0.00188244       0.00370487      -0.00521451
O       20.47710709       9.68901086      12.43114757  F        0       0.00003430       0.00002636       0.00172609
O       15.81096432       8.07417635      13.63952349  F        1      -0.01664758      -0.00000944      -0.00707098
O       18.31754854       8.07417632      13.63952293  F        2       0.01647130      -0.00001292      -0.00715469
Sn      13.65140527       8.07417564      13.63204828  F        3       0.00025848       0.00000292      -0.00383055
Sn      17.06425658       6.45934127      13.93646918  F        4       0.00018147       0.00008418       0.00186205
O       20.47710740       9.68901082      15.10100240  F        5       0.00032964       0.00027906       0.00155121
O       17.06425672       6.45934088      15.96367047  F        6      -0.00070331      -0.00023973       0.00117460
O       14.98680034       8.07417583      17.24202773  F        7      -0.00409105       0.00000410      -0.00063789
O       19.14171209       8.07417583      17.24202843  F        8       0.00148840       0.00000032      -0.00427908
Sn      20.47710704       9.68901097      17.17296284  F        9      -0.00126816      -0.00132124       0.03259467
Sn      17.06425618       8.07417571      17.29794302  F       10       0.00353351      -0.00000118      -0.00527111
O       17.06425653       6.45934077      18.57956262  F       11      -0.00307757      -0.00065271       0.00642349
O       20.47710711       6.45934102      19.30782007  F       12       0.00089498       0.00075896      -0.00197875
O       15.74722046       8.07417575      20.64643965  F       13      -0.04266002       0.00006736      -0.00606636
O       18.38129202       8.07417572      20.64644013  F       14       0.00931975       0.00005784      -0.01889205
Sn      20.47710712       8.07417609      20.64643955  F       15      -0.00999570      -0.00004339       0.03433584
Sn      17.06425615       9.68901084      20.64643991  F       16       0.02414190      -0.00927497       0.04454550
O       20.47710711       6.45934083      21.98505885  F       17       0.01155369      -0.01329402      -0.05514039
O       17.06425609       9.68901101      22.71331588  F       18      -0.05797309       0.00448344      -0.17854077
O       14.98680068       8.07417592      24.05084986  F       19      -0.50129503      -0.00011327       0.19940311
O       19.14171224       8.07417574      24.05085043  F       20       0.22049597       0.00020722      -0.05003403
Sn      13.65140581       9.68901101      24.11991567  F       21       0.07568242       0.20640503      -0.53804237
Sn      17.06425608       8.07417581      23.99493530  F       22       0.26624969      -0.00103085       0.75770515
O       17.06425637       6.45934085      25.32920843  F       23      -0.09084210      -0.42709649       0.12549549
O       13.54812322       9.74986771      26.21894635  T       24       0.00568865       0.00526194       0.00841739
O       15.69898549       8.07377134      27.25945077  T       25      -0.00623861      -0.00155060       0.00765936
O       18.36684309       8.07514567      27.25197696  T       26       0.02093172      -0.00879175       0.01632675
Sn      20.43192358       8.07408922      27.61524740  T       27      -0.00273814       0.00049924      -0.00658789
Sn      17.08198996       6.48292817      27.44130481  T       28      -0.01301862       0.00734325       0.00704646
O       20.41198733       9.67641716      28.83560400  T       29      -0.00049639       0.00024730      -0.00411695
O       20.47710709      12.91868123      12.43114757  F        0       0.00002137       0.00002940       0.00172591
O       15.81096432      11.30384671      13.63952349  F        1      -0.01657486       0.00006548      -0.00692068
O       18.31754854      11.30384668      13.63952293  F        2       0.01644292       0.00007840      -0.00699749
Sn      13.65140527      11.30384601      13.63204828  F        3       0.00019896       0.00002093      -0.00393614
Sn      17.06425658       9.68901164      13.93646918  F        4       0.00018303      -0.00008845       0.00186139
O       20.47710740      12.91868119      15.10100240  F        5       0.00020204       0.00044166       0.00195986
O       17.06425672       9.68901125      15.96367047  F        6      -0.00070455       0.00022404       0.00118104
O       14.98680034      11.30384619      17.24202773  F        7      -0.00340283       0.00039975      -0.00174081
O       19.14171209      11.30384620      17.24202843  F        8       0.00127277       0.00120463      -0.00440552
Sn      20.47710704      12.91868134      17.17296284  F        9      -0.00101683      -0.00203658       0.03116873
Sn      17.06425618      11.30384608      17.29794302  F       10       0.00278233      -0.00252018      -0.00601612
O       17.06425653       9.68901113      18.57956262  F       11      -0.00307847       0.00065647       0.00644591
O       20.47710711       9.68901139      19.30782007  F       12       0.00089199      -0.00077062      -0.00195932
O       15.74722046      11.30384611      20.64643965  F       13      -0.02961406       0.00514030       0.00048033
O       18.38129202      11.30384609      20.64644013  F       14       0.00243479       0.00929419      -0.00814140
Sn      20.47710712      11.30384646      20.64643955  F       15      -0.00460685      -0.00706365       0.02743456
Sn      17.06425615      12.91868120      20.64643991  F       16       0.01622918      -0.00899332       0.00228016
O       20.47710711       9.68901120      21.98505885  F       17       0.01156902       0.01338700      -0.05497717
O       17.06425609      12.91868138      22.71331588  F       18      -0.03158090      -0.00955862      -0.00849174
O       14.98680068      11.30384628      24.05084986  F       19      -0.26358548      -0.04056542       0.11869024
O       19.14171224      11.30384610      24.05085043  F       20       0.09959900       0.06690138      -0.02941044
Sn      13.65140581      12.91868138      24.11991567  F       21       0.01630974       0.13244671      -0.33024895
Sn      17.06425608      11.30384618      23.99493530  F       22       0.16616222      -0.35721892       0.36483765
O       17.06425637       9.68901122      25.32920843  F       23      -0.09194607       0.42755967       0.12061895
O       13.62550761      12.96148400      26.18513867  T       24       0.00379579       0.00886054       0.01537538
O       15.76560122      11.31916297      27.55388866  T       25      -0.00289765      -0.00280721      -0.00745697
O       18.31446912      11.33422125      27.56835886  T       26       0.00659734      -0.00617996      -0.00854978
Sn      20.45162463      11.30419042      27.65497961  T       27       0.00810510       0.00134217      -0.00532004
Sn      17.08059502       9.66544846      27.44067695  T       28      -0.00881498      -0.00266202       0.00356129
O       20.47014290      12.91979074      28.85993396  T       29      -0.00301428      -0.00236294       0.00118357
O       20.47710709      16.14835159      12.43114757  F        0       0.00001339       0.00001468       0.00173825
O       15.81096432      14.53351708      13.63952349  F        1      -0.01644117       0.00005154      -0.00668380
O       18.31754854      14.53351705      13.63952293  F        2       0.01637924       0.00005643      -0.00673827
Sn      13.65140527      14.53351637      13.63204828  F        3       0.00008785       0.00005983      -0.00403965
Sn      17.06425658      12.91868201      13.93646918  F        4       0.00013195      -0.00018214       0.00075543
O       20.47710740      16.14835156      15.10100240  F        5       0.00011852       0.00001550       0.00228971
O       17.06425672      12.91868161      15.96367047  F        6      -0.00056098       0.00041982       0.00204493
O       14.98680034      14.53351656      17.24202773  F        7      -0.00201714       0.00007683      -0.00291575
O       19.14171209      14.53351656      17.24202843  F        8       0.00072387       0.00072225      -0.00429535
Sn      20.47710704      16.14835170      17.17296284  F        9      -0.00078348      -0.00000711       0.02963006
Sn      17.06425618      14.53351644      17.29794302  F       10       0.00156935      -0.00168966      -0.00733428
O       17.06425653      12.91868150      18.57956262  F       11      -0.00196555       0.00075247       0.00191594
O       20.47710711      12.91868175      19.30782007  F       12       0.00117683      -0.00115412      -0.00041401
O       15.74722046      14.53351648      20.64643965  F       13      -0.01509610      -0.00227225       0.00283488
O       18.38129202      14.53351646      20.64644013  F       14       0.00022112       0.00092631      -0.00143910
Sn      20.47710712      14.53351682      20.64643955  F       15      -0.00213693      -0.00788694       0.01558921
Sn      17.06425615      16.14835157      20.64643991  F       16       0.01061483       0.00002805       0.00518651
O       20.47710711      12.91868157      21.98505885  F       17       0.00355146       0.01738554      -0.03744418
O       17.06425609      16.14835175      22.71331588  F       18      -0.01734214      -0.00002283       0.00755939
O       14.98680068      14.53351665      24.05084986  F       19      -0.05907762      -0.00526754       0.03646906
O       19.14171224      14.53351647      24.05085043  F       20       0.00299686       0.01575706      -0.00831924
Sn      13.65140581      16.14835174      24.11991567  F       21       0.00561417       0.00068562      -0.02927946
Sn      17.06425608      14.53351654      23.99493530  F       22       0.06322384      -0.01515872       0.02229038
O       17.06425637      12.91868158      25.32920843  F       23      -0.07199141       0.19307630      -0.22724855
O       13.64958828      16.14897586      26.20530713  T       24      -0.00402283      -0.00453503      -0.00768530
O       15.80006453      14.52993064      27.65193059  T       25      -0.00111768       0.00227829      -0.00005911
O       18.31195450      14.53571618      27.65833587  T       26      -0.00009939      -0.00108925       0.00225294
Sn      20.47533637      14.53353230      27.65775839  T       27      -0.00043409      -0.00005890      -0.00014836
Sn      17.06286851      12.91528049      27.34187049  T       28       0.00553321      -0.00012973      -0.00340909
O       20.47206268      16.14911578      28.85875426  T       29      -0.00265884      -0.00359066      -0.00142109
O       27.30280959       3.22967013      12.43114757  F        0       0.00000848       0.00000890       0.00178164
O       22.63666682       1.61483561      13.63952349  F        1      -0.01633608      -0.00001212      -0.00659510
O       25.14325104       1.61483559      13.63952293  F        2       0.01635954      -0.00001264      -0.00657053
Sn      20.47710777       1.61483491      13.63204828  F        3      -0.00006955       0.00010389      -0.00335234
Sn      23.88995908       0.00000054      13.93646918  F        4      -0.00003037      -0.00001788      -0.00021142
O       27.30280990       3.22967009      15.10100240  F        5       0.00002649      -0.00000569       0.00297397
O       23.88995922       0.00000015      15.96367047  F        6       0.00018515       0.00001268       0.00317430
O       21.81250284       1.61483510      17.24202773  F        7       0.00039065      -0.00062831      -0.00405634
O       25.96741459       1.61483510      17.24202843  F        8       0.00064424      -0.00009146      -0.00294201
Sn      27.30280954       3.22967024      17.17296284  F        9      -0.00029652       0.00013945       0.02688389
Sn      23.88995868       1.61483498      17.29794302  F       10      -0.00081523       0.00048150      -0.00991003
O       23.88995902       0.00000003      18.57956262  F       11       0.00058371       0.00000450       0.00087111
O       27.30280961       0.00000029      19.30782007  F       12       0.00041181      -0.00000351       0.00349693
O       22.57292296       1.61483502      20.64643965  F       13      -0.00133426      -0.00247057      -0.00369728
O       25.20699452       1.61483499      20.64644013  F       14       0.00818324      -0.00125394      -0.00229341
Sn      27.30280962       1.61483536      20.64643955  F       15      -0.00215556       0.00063721       0.00245440
Sn      23.88995865       3.22967011      20.64643991  F       16      -0.00598822       0.00404505       0.01136351
O       27.30280961       0.00000010      21.98505885  F       17       0.00086874       0.00001290      -0.00605879
O       23.88995859       3.22967028      22.71331588  F       18       0.00943985      -0.00873455      -0.01132461
O       21.81250318       1.61483519      24.05084986  F       19       0.01046161      -0.01923610      -0.00915360
O       25.96741474       1.61483501      24.05085043  F       20       0.00429802      -0.00068651      -0.00151367
Sn      20.47710831       3.22967028      24.11991567  F       21      -0.00802056       0.06233563      -0.01820074
Sn      23.88995858       1.61483508      23.99493530  F       22      -0.01914907       0.00942054       0.01990633
O       23.88995887       0.00000012      25.32920843  F       23      -0.00063001       0.00031790      -0.00175667
O       20.48533665       3.22041350      26.18974153  T       24       0.00468039      -0.00914598       0.00242364
O       22.63331970       1.61298211      27.65872644  T       25       0.00317755       0.00192693       0.00212716
O       25.13824304       1.61793169      27.65225861  T       26      -0.00080270       0.00053927       0.00099657
Sn      27.29519116       1.61648812      27.66118374  T       27      -0.00230979      -0.00120163      -0.00028008
Sn      23.88801414       0.00023105      27.35647605  T       28      -0.00045365      -0.00030370       0.00330025
O       27.29012293       3.23185167      28.86150512  T       29       0.00555503      -0.00142490      -0.00032580
O       27.30280959       6.45934050      12.43114757  F        0       0.00001249      -0.00000478       0.00179899
O       22.63666682       4.84450598      13.63952349  F        1      -0.01634279      -0.00001927      -0.00667459
O       25.14325104       4.84450595      13.63952293  F        2       0.01637647      -0.00002679      -0.00662053
Sn      20.47710777       4.84450527      13.63204828  F        3      -0.00013489       0.00021151      -0.00280863
Sn      23.88995908       3.22967091      13.93646918  F        4      -0.00008127       0.00004206      -0.00005746
O       27.30280990       6.45934046      15.10100240  F        5       0.00005941      -0.00001895       0.00292647
O       23.88995922       3.22967052      15.96367047  F        6       0.00037212      -0.00024625       0.00290583
O       21.81250284       4.84450546      17.24202773  F        7       0.00067902      -0.00097529      -0.00440588
O       25.96741459       4.84450547      17.24202843  F        8       0.00093839      -0.00021385      -0.00317931
Sn      27.30280954       6.45934061      17.17296284  F        9      -0.00051082       0.00011837       0.02725892
Sn      23.88995868       4.84450535      17.29794302  F       10      -0.00187642       0.00103544      -0.00869335
O       23.88995902       3.22967040      18.57956262  F       11       0.00096296      -0.00084574       0.00025326
O       27.30280961       3.22967066      19.30782007  F       12       0.00061435      -0.00037294       0.00339072
O       22.57292296       4.84450538      20.64643965  F       13       0.00055852      -0.00291750      -0.00638943
O       25.20699452       4.84450536      20.64644013  F       14       0.00941351      -0.00092811      -0.00298253
Sn      27.30280962       4.84450573      20.64643955  F       15      -0.00363311       0.00080968       0.00275578
Sn      23.88995865       6.45934047      20.64643991  F       16      -0.00860567       0.00148115       0.01424482
O       27.30280961       3.22967047      21.98505885  F       17       0.00148170      -0.00067838      -0.00619582
O       23.88995859       6.45934065      22.71331588  F       18       0.01218865      -0.00208721      -0.01511321
O       21.81250318       4.84450555      24.05084986  F       19       0.04206868      -0.06059737      -0.05312553
O       25.96741474       4.84450537      24.05085043  F       20       0.00700505      -0.00143006      -0.00269374
Sn      20.47710831       6.45934065      24.11991567  F       21      -0.05349170       0.02664938      -0.04042296
Sn      23.88995858       4.84450545      23.99493530  F       22      -0.04936225       0.01149586       0.02755363
O       23.88995887       3.22967049      25.32920843  F       23      -0.00771973       0.00201786       0.02599964
O       20.54742275       6.43566557      26.17912435  T       24       0.00526873       0.00270364       0.00146788
O       22.62885096       4.84319841      27.68393421  T       25       0.00357231      -0.00223579      -0.00090748
O       25.13488748       4.84904251      27.64686343  T       26       0.00131026      -0.00089238      -0.00147483
Sn      27.29128017       4.84649934      27.66014149  T       27       0.00418624      -0.00140560       0.00022468
Sn      23.87940262       3.23324192      27.35877095  T       28       0.00205668       0.00043566       0.00097561
O       27.29590321       6.46058682      28.86197266  T       29       0.00085418      -0.00115783      -0.00072223
O       27.30280959       9.68901086      12.43114757  F        0       0.00001081       0.00002235       0.00180244
O       22.63666682       8.07417635      13.63952349  F        1      -0.01636142      -0.00000972      -0.00673901
O       25.14325104       8.07417632      13.63952293  F        2       0.01640233      -0.00000985      -0.00666378
Sn      20.47710777       8.07417564      13.63204828  F        3      -0.00016434       0.00000343      -0.00244781
Sn      23.88995908       6.45934127      13.93646918  F        4      -0.00017119       0.00002995       0.00027692
O       27.30280990       9.68901082      15.10100240  F        5       0.00005921       0.00001695       0.00292075
O       23.88995922       6.45934088      15.96367047  F        6       0.00064066      -0.00018997       0.00230552
O       21.81250284       8.07417583      17.24202773  F        7       0.00081252      -0.00000038      -0.00432758
O       25.96741459       8.07417583      17.24202843  F        8       0.00113459       0.00000103      -0.00326800
Sn      27.30280954       9.68901097      17.17296284  F        9      -0.00051251      -0.00011092       0.02723935
Sn      23.88995868       8.07417571      17.29794302  F       10      -0.00265182       0.00000664      -0.00795264
O       23.88995902       6.45934077      18.57956262  F       11       0.00114509      -0.00047514      -0.00038278
O       27.30280961       6.45934102      19.30782007  F       12       0.00087645      -0.00013663       0.00327363
O       22.57292296       8.07417575      20.64643965  F       13       0.00028470       0.00001934      -0.00653774
O       25.20699452       8.07417572      20.64644013  F       14       0.01024287       0.00000887      -0.00349078
Sn      27.30280962       8.07417609      20.64643955  F       15      -0.00428102      -0.00000325       0.00293095
Sn      23.88995865       9.68901084      20.64643991  F       16      -0.00861708      -0.00151193       0.01414683
O       27.30280961       6.45934083      21.98505885  F       17       0.00202654      -0.00024014      -0.00664767
O       23.88995859       9.68901101      22.71331588  F       18       0.01216479       0.00213525      -0.01505577
O       21.81250318       8.07417592      24.05084986  F       19       0.03835574       0.00005582      -0.03972393
O       25.96741474       8.07417574      24.05085043  F       20       0.00699289       0.00026512      -0.00210149
Sn      20.47710831       9.68901101      24.11991567  F       21      -0.05320046      -0.02757264      -0.03804640
Sn      23.88995858       8.07417581      23.99493530  F       22      -0.06048507      -0.00015400       0.03957016
O       23.88995887       6.45934085      25.32920843  F       23       0.01088904      -0.00617612       0.00291161
O       20.54753771       9.71196894      26.17941668  T       24       0.00617686       0.00366483       0.00025785
O       22.62428559       8.07444907      27.67742902  T       25       0.00285363      -0.00085336       0.00260861
O       25.13038255       8.07463707      27.65291343  T       26       0.00323525      -0.00136988      -0.00346122
Sn      27.28946857       8.07471400      27.66046681  T       27       0.00191158      -0.00035221       0.00177485
Sn      23.86901352       6.46128205      27.35803323  T       28       0.00047078       0.00117157      -0.00009426
O       27.29596146       9.68894745      28.86193406  T       29       0.00096775       0.00030582      -0.00085813
O       27.30280959      12.91868123      12.43114757  F        0       0.00000880       0.00001848       0.00179100
O       22.63666682      11.30384671      13.63952349  F        1      -0.01635626       0.00000908      -0.00667982
O       25.14325104      11.30384668      13.63952293  F        2       0.01638803       0.00002163      -0.00662669
Sn      20.47710777      11.30384601      13.63204828  F        3      -0.00013358      -0.00021597      -0.00280955
Sn      23.88995908       9.68901164      13.93646918  F        4      -0.00016926      -0.00003849       0.00027895
O       27.30280990      12.91868119      15.10100240  F        5       0.00002680       0.00003109       0.00296700
O       23.88995922       9.68901125      15.96367047  F        6       0.00064040       0.00017652       0.00230861
O       21.81250284      11.30384619      17.24202773  F        7       0.00067216       0.00098060      -0.00440294
O       25.96741459      11.30384620      17.24202843  F        8       0.00094712       0.00021846      -0.00317300
Sn      27.30280954      12.91868134      17.17296284  F        9      -0.00029798      -0.00014222       0.02686474
Sn      23.88995868      11.30384608      17.29794302  F       10      -0.00187020      -0.00102510      -0.00869818
O       23.88995902       9.68901113      18.57956262  F       11       0.00114673       0.00046945      -0.00036955
O       27.30280961       9.68901139      19.30782007  F       12       0.00087655       0.00013718       0.00328902
O       22.57292296      11.30384611      20.64643965  F       13       0.00057518       0.00292021      -0.00633930
O       25.20699452      11.30384609      20.64644013  F       14       0.00939829       0.00093503      -0.00295344
Sn      27.30280962      11.30384646      20.64643955  F       15      -0.00360480      -0.00079093       0.00273550
Sn      23.88995865      12.91868120      20.64643991  F       16      -0.00599688      -0.00400254       0.01121548
O       27.30280961       9.68901120      21.98505885  F       17       0.00201217       0.00030936      -0.00663761
O       23.88995859      12.91868138      22.71331588  F       18       0.00938194       0.00861689      -0.01118043
O       21.81250318      11.30384628      24.05084986  F       19       0.04134342       0.06023625      -0.05237371
O       25.96741474      11.30384610      24.05085043  F       20       0.00700384       0.00186614      -0.00248290
Sn      20.47710831      12.91868138      24.11991567  F       21      -0.00822567      -0.06173753      -0.01467650
Sn      23.88995858      11.30384618      23.99493530  F       22      -0.04903070      -0.01170767       0.02732547
O       23.88995887       9.68901122      25.32920843  F       23       0.01058912       0.00749539       0.00241427
O       20.48493094      12.92832370      26.19002666  T       24       0.00526720       0.00740653      -0.00059336
O       22.62865306      11.30558362      27.68407365  T       25       0.00324872       0.00113885      -0.00019225
O       25.13486359      11.29992046      27.64643115  T       26       0.00118670       0.00050629      -0.00069087
Sn      27.29139033      11.30290441      27.66001072  T       27       0.00376633       0.00049551       0.00068223
Sn      23.86884442       9.68763711      27.35800367  T       28       0.00152393      -0.00145902      -0.00055909
O       27.29047714      12.91753089      28.86149759  T       29       0.00475527       0.00058803      -0.00072849
O       27.30280959      16.14835159      12.43114757  F        0       0.00000745       0.00001418       0.00178677
O       22.63666682      14.53351708      13.63952349  F        1      -0.01634064       0.00001085      -0.00659884
O       25.14325104      14.53351705      13.63952293  F        2       0.01636168       0.00001596      -0.00657355
Sn      20.47710777      14.53351637      13.63204828  F        3      -0.00007121      -0.00011783      -0.00335661
Sn      23.88995908      12.91868201      13.93646918  F        4      -0.00008039      -0.00007352      -0.00004607
O       27.30280990      16.14835156      15.10100240  F        5       0.00001809       0.00001403       0.00298870
O       23.88995922      12.91868161      15.96367047  F        6       0.00037366       0.00025221       0.00290842
O       21.81250284      14.53351656      17.24202773  F        7       0.00038187       0.00063333      -0.00406007
O       25.96741459      14.53351656      17.24202843  F        8       0.00064726       0.00008436      -0.00294136
Sn      27.30280954      16.14835170      17.17296284  F        9      -0.00017265      -0.00000613       0.02662545
Sn      23.88995868      14.53351644      17.29794302  F       10      -0.00080970      -0.00049755      -0.00991010
O       23.88995902      12.91868150      18.57956262  F       11       0.00096764       0.00084724       0.00027773
O       27.30280961      12.91868175      19.30782007  F       12       0.00061259       0.00036142       0.00340680
O       22.57292296      14.53351648      20.64643965  F       13      -0.00132198       0.00243469      -0.00367243
O       25.20699452      14.53351646      20.64644013  F       14       0.00817757       0.00121178      -0.00227751
Sn      27.30280962      14.53351682      20.64643955  F       15      -0.00213199      -0.00057759       0.00245009
Sn      23.88995865      16.14835157      20.64643991  F       16      -0.00452293       0.00002237       0.00678222
O       27.30280961      12.91868157      21.98505885  F       17       0.00146120       0.00072728      -0.00619315
O       23.88995859      16.14835175      22.71331588  F       18       0.00553660      -0.00010177      -0.00868966
O       21.81250318      14.53351665      24.05084986  F       19       0.01030640       0.01959329      -0.00875722
O       25.96741474      14.53351647      24.05085043  F       20       0.00427362       0.00066157      -0.00132874
Sn      20.47710831      16.14835174      24.11991567  F       21       0.00109175       0.00032834      -0.03180519
Sn      23.88995858      14.53351654      23.99493530  F       22      -0.01907249      -0.00904063       0.01979698
O       23.88995887      12.91868158      25.32920843  F       23      -0.00805412      -0.00139457       0.02511893
O       20.47596966      16.14888041      26.19080584  T       24      -0.00390333      -0.00223331      -0.00031853
O       22.63333731      14.53566830      27.65868302  T       25       0.00151482      -0.00012435       0.00271091
O       25.13809152      14.53074464      27.65208776  T       26       0.00125238       0.00085453       0.00145011
Sn      27.29511908      14.53282512      27.66116478  T       27      -0.00145205       0.00072703      -0.00032869
Sn      23.87929792      12.91550055      27.35869601  T       28       0.00153936      -0.00004250       0.00117218
O       27.29212083      16.14883104      28.86098866  T       29       0.00273601      -0.00012764      -0.00009280
O       34.12851209       3.22967013      12.43114757  F        0      -0.00000183       0.00000396       0.00178099
O       29.46236932       1.61483561      13.63952349  F        1      -0.01633590      -0.00000282      -0.00652763
O       31.96895354       1.61483559      13.63952293  F        2       0.01633117      -0.00000281      -0.00652444
Sn      27.30281027       1.61483491      13.63204828  F        3      -0.00001995      -0.00000371      -0.00382912
Sn      30.71566158       0.00000054      13.93646918  F        4      -0.00000022      -0.00001970      -0.00038904
O       34.12851240       3.22967009      15.10100240  F        5       0.00000581       0.00001317       0.00306875
O       30.71566172       0.00000015      15.96367047  F        6       0.00001379       0.00001026       0.00348389
O       28.63820534       1.61483510      17.24202773  F        7      -0.00026913      -0.00003591      -0.00279531
O       32.79311709       1.61483510      17.24202843  F        8       0.00043367       0.00000147      -0.00265682
Sn      34.12851204       3.22967024      17.17296284  F        9      -0.00008689      -0.00001389       0.02607578
Sn      30.71566118       1.61483498      17.29794302  F       10      -0.00010553       0.00002068      -0.01149444
O       30.71566152       0.00000003      18.57956262  F       11       0.00004136       0.00000809       0.00252643
O       34.12851211       0.00000029      19.30782007  F       12       0.00022356       0.00000463       0.00435185
O       29.39862546       1.61483502      20.64643965  F       13      -0.00543296      -0.00015158      -0.00033480
O       32.03269702       1.61483499      20.64644013  F       14       0.00631463      -0.00003344      -0.00013929
Sn      34.12851212       1.61483536      20.64643955  F       15      -0.00098745      -0.00007780      -0.00044282
Sn      30.71566115       3.22967011      20.64643991  F       16      -0.00072754       0.00018720       0.00079564
O       34.12851211       0.00000010      21.98505885  F       17       0.00073651       0.00002475      -0.00372908
O       30.71566109       3.22967028      22.71331588  F       18       0.00078762      -0.00013064      -0.00336016
O       28.63820568       1.61483519      24.05084986  F       19       0.00070205      -0.00045358       0.00299175
O       32.79311724       1.61483501      24.05085043  F       20       0.00010987       0.00118782       0.00062536
Sn      27.30281081       3.22967028      24.11991567  F       21      -0.01046554       0.00318436      -0.02220292
Sn      30.71566108       1.61483508      23.99493530  F       22      -0.00077013       0.00093810       0.01329757
O       30.71566137       0.00000012      25.32920843  F       23      -0.00685703       0.00053823       0.00796033
O       27.30217723       3.23043590      26.19148040  T       24       0.00217349      -0.00230985      -0.00092763
O       29.45499399       1.61579372      27.65709301  T       25      -0.00052354      -0.00296602       0.00035526
O       31.96262145       1.61543955      27.65344024  T       26       0.00326291      -0.00067257       0.00102636
Sn      34.12198589       1.61489186      27.66049958  T       27       0.00127294       0.00031226       0.00079229
Sn      30.70807936       0.00031997      27.35711648  T       28       0.00315569      -0.00043470       0.00101113
O       34.11888879       3.22966405      28.86109103  T       29       0.00619797       0.00049115       0.00114042
O       34.12851209       6.45934050      12.43114757  F        0      -0.00000196      -0.00000136       0.00179112
O       29.46236932       4.84450598      13.63952349  F        1      -0.01632592      -0.00000518      -0.00652823
O       31.96895354       4.84450595      13.63952293  F        2       0.01632282      -0.00000435      -0.00652403
Sn      27.30281027       4.84450527      13.63204828  F        3      -0.00003178       0.00001649      -0.00382736
Sn      30.71566158       3.22967091      13.93646918  F        4      -0.00000152      -0.00000162      -0.00038463
O       34.12851240       6.45934046      15.10100240  F        5       0.00000700       0.00000129       0.00307226
O       30.71566172       3.22967052      15.96367047  F        6       0.00002080      -0.00001220       0.00348178
O       28.63820534       4.84450546      17.24202773  F        7      -0.00020468      -0.00005431      -0.00289591
O       32.79311709       4.84450547      17.24202843  F        8       0.00044750       0.00001101      -0.00264815
Sn      34.12851204       6.45934061      17.17296284  F        9      -0.00010714      -0.00000960       0.02603590
Sn      30.71566118       4.84450535      17.29794302  F       10      -0.00016866       0.00003594      -0.01144454
O       30.71566152       3.22967040      18.57956262  F       11       0.00007863      -0.00003377       0.00250128
O       34.12851211       3.22967066      19.30782007  F       12       0.00024710       0.00002219       0.00437580
O       29.39862546       4.84450538      20.64643965  F       13      -0.00533924      -0.00018993      -0.00034627
O       32.03269702       4.84450536      20.64644013  F       14       0.00646906      -0.00005355      -0.00018709
Sn      34.12851212       4.84450573      20.64643955  F       15      -0.00114033      -0.00013550      -0.00053395
Sn      30.71566115       6.45934047      20.64643991  F       16      -0.00097575       0.00009819       0.00106744
O       34.12851211       3.22967047      21.98505885  F       17       0.00081444       0.00016218      -0.00367167
O       30.71566109       6.45934065      22.71331588  F       18       0.00123365      -0.00007758      -0.00381754
O       28.63820568       4.84450555      24.05084986  F       19       0.00069767       0.00066136       0.00162749
O       32.79311724       4.84450537      24.05085043  F       20       0.00083546       0.00072333       0.00131141
Sn      27.30281081       6.45934065      24.11991567  F       21      -0.01276265       0.00147634      -0.02339323
Sn      30.71566108       4.84450545      23.99493530  F       22      -0.00200273       0.00116092       0.01392809
O       30.71566137       3.22967049      25.32920843  F       23      -0.00478824       0.00082025       0.00632736
O       27.30279120       6.46027229      26.19143008  T       24       0.00139615      -0.00052612      -0.00070912
O       29.45354927       4.84460279      27.65728180  T       25       0.00088626      -0.00163091      -0.00127947
O       31.96222282       4.84632698      27.65280910  T       26       0.00145671      -0.00264000       0.00251147
Sn      34.12091725       4.84469487      27.66092514  T       27       0.00173704      -0.00072075       0.00060591
Sn      30.70831071       3.23089189      27.35711484  T       28       0.00017949      -0.00285169       0.00023669
O       34.12174013       6.45980378      28.86099284  T       29       0.00436069      -0.00070668       0.00124449
O       34.12851209       9.68901086      12.43114757  F        0      -0.00000161       0.00002041       0.00179613
O       29.46236932       8.07417635      13.63952349  F        1      -0.01633739      -0.00000901      -0.00652886
O       31.96895354       8.07417632      13.63952293  F        2       0.01633662      -0.00000911      -0.00652777
Sn      27.30281027       8.07417564      13.63204828  F        3      -0.00003961       0.00000056      -0.00382078
Sn      30.71566158       6.45934127      13.93646918  F        4      -0.00000784      -0.00000359      -0.00036842
O       34.12851240       9.68901082      15.10100240  F        5       0.00000865      -0.00000175       0.00306797
O       30.71566172       6.45934088      15.96367047  F        6       0.00003226      -0.00001193       0.00347480
O       28.63820534       8.07417583      17.24202773  F        7      -0.00014889      -0.00000052      -0.00294371
O       32.79311709       8.07417583      17.24202843  F        8       0.00046322       0.00000079      -0.00264063
Sn      34.12851204       9.68901097      17.17296284  F        9      -0.00010324       0.00002228       0.02603835
Sn      30.71566118       8.07417571      17.29794302  F       10      -0.00021164       0.00001407      -0.01141202
O       30.71566152       6.45934077      18.57956262  F       11       0.00012447      -0.00001854       0.00248579
O       34.12851211       6.45934102      19.30782007  F       12       0.00028118      -0.00000098       0.00441182
O       29.39862546       8.07417575      20.64643965  F       13      -0.00528675      -0.00000223      -0.00036573
O       32.03269702       8.07417572      20.64644013  F       14       0.00653896      -0.00000947      -0.00020943
Sn      34.12851212       8.07417609      20.64643955  F       15      -0.00124278       0.00003668      -0.00058529
Sn      30.71566115       9.68901084      20.64643991  F       16      -0.00096537      -0.00008556       0.00106438
O       34.12851211       6.45934083      21.98505885  F       17       0.00088330       0.00010006      -0.00368232
O       30.71566109       9.68901101      22.71331588  F       18       0.00124545      -0.00000193      -0.00382293
O       28.63820568       8.07417592      24.05084986  F       19       0.00080140       0.00004551       0.00020853
O       32.79311724       8.07417574      24.05085043  F       20       0.00135003       0.00022591       0.00206281
Sn      27.30281081       9.68901101      24.11991567  F       21      -0.01255784      -0.00156624      -0.02376258
Sn      30.71566108       8.07417581      23.99493530  F       22      -0.00314915       0.00000024       0.01433853
O       30.71566137       6.45934085      25.32920843  F       23      -0.00525255       0.00047564       0.00449768
O       27.30296464       9.68857116      26.19139623  T       24       0.00135747       0.00054163      -0.00055486
O       29.45246729       8.07443965      27.65706273  T       25      -0.00031704       0.00016590      -0.00104783
O       31.96153264       8.07444112      27.65240235  T       26      -0.00084776      -0.00027450       0.00314149
Sn      34.11975477       8.07440041      27.66020277  T       27       0.00178933      -0.00046876       0.00194508
Sn      30.70526490       6.46009149      27.35708341  T       28       0.00124137      -0.00118960       0.00027937
O       34.12176394       9.68889263      28.86116967  T       29       0.00402727       0.00049623       0.00023401
O       34.12851209      12.91868123      12.43114757  F        0      -0.00000085       0.00001678       0.00178170
O       29.46236932      11.30384671      13.63952349  F        1      -0.01634017       0.00000610      -0.00653269
O       31.96895354      11.30384668      13.63952293  F        2       0.01633778       0.00000349      -0.00653134
Sn      27.30281027      11.30384601      13.63204828  F        3      -0.00003163      -0.00002436      -0.00382835
Sn      30.71566158       9.68901164      13.93646918  F        4      -0.00000754      -0.00001357      -0.00036621
O       34.12851240      12.91868119      15.10100240  F        5       0.00000432       0.00000529       0.00306004
O       30.71566172       9.68901125      15.96367047  F        6       0.00003233      -0.00000452       0.00347620
O       28.63820534      11.30384619      17.24202773  F        7      -0.00021355       0.00006229      -0.00289218
O       32.79311709      11.30384620      17.24202843  F        8       0.00046220      -0.00001086      -0.00264534
Sn      34.12851204      12.91868134      17.17296284  F        9      -0.00008908       0.00000681       0.02608062
Sn      30.71566118      11.30384608      17.29794302  F       10      -0.00016898      -0.00002982      -0.01143837
O       30.71566152       9.68901113      18.57956262  F       11       0.00012181       0.00000337       0.00249461
O       34.12851211       9.68901139      19.30782007  F       12       0.00027920      -0.00001385       0.00440169
O       29.39862546      11.30384611      20.64643965  F       13      -0.00535829       0.00018109      -0.00034994
O       32.03269702      11.30384609      20.64644013  F       14       0.00645689       0.00004190      -0.00018940
Sn      34.12851212      11.30384646      20.64643955  F       15      -0.00111366       0.00016208      -0.00051360
Sn      30.71566115      12.91868120      20.64643991  F       16      -0.00071845      -0.00016768       0.00080780
O       34.12851211       9.68901120      21.98505885  F       17       0.00086362      -0.00011304      -0.00371810
O       30.71566109      12.91868138      22.71331588  F       18       0.00081379       0.00004891      -0.00337758
O       28.63820568      11.30384628      24.05084986  F       19       0.00071952      -0.00047471       0.00145587
O       32.79311724      11.30384610      24.05085043  F       20       0.00077134      -0.00053670       0.00139892
Sn      27.30281081      12.91868138      24.11991567  F       21      -0.01001153      -0.00307639      -0.02282731
Sn      30.71566108      11.30384618      23.99493530  F       22      -0.00210963      -0.00113121       0.01391951
O       30.71566137       9.68901122      25.32920843  F       23      -0.00526143       0.00053557       0.00467473
O       27.30262969      12.91842712      26.19143482  T       24       0.00109113       0.00186504      -0.00048602
O       29.45363637      11.30439545      27.65735628  T       25       0.00049904       0.00084016      -0.00127090
O       31.96227592      11.30246781      27.65275639  T       26       0.00018722       0.00271106       0.00231488
Sn      34.12074447      11.30388794      27.66086975  T       27       0.00265458       0.00080625       0.00145850
Sn      30.70519726       9.68877400      27.35709617  T       28       0.00164895       0.00104505       0.00004131
O       34.11901891      12.91887756      28.86115668  T       29       0.00551449      -0.00007940       0.00074345
O       34.12851209      16.14835159      12.43114757  F        0      -0.00000100       0.00000677       0.00178510
O       29.46236932      14.53351708      13.63952349  F        1      -0.01633722       0.00000935      -0.00652996
O       31.96895354      14.53351705      13.63952293  F        2       0.01633582       0.00000695      -0.00652841
Sn      27.30281027      14.53351637      13.63204828  F        3      -0.00002172      -0.00001484      -0.00383118
Sn      30.71566158      12.91868201      13.93646918  F        4      -0.00000442      -0.00003138      -0.00037026
O       34.12851240      16.14835156      15.10100240  F        5       0.00000350       0.00000859       0.00306243
O       30.71566172      12.91868161      15.96367047  F        6       0.00002111       0.00001737       0.00348105
O       28.63820534      14.53351656      17.24202773  F        7      -0.00027420       0.00003694      -0.00279971
O       32.79311709      14.53351656      17.24202843  F        8       0.00043638       0.00000120      -0.00265735
Sn      34.12851204      16.14835170      17.17296284  F        9      -0.00007766      -0.00000640       0.02610300
Sn      30.71566118      14.53351644      17.29794302  F       10      -0.00010074      -0.00003361      -0.01149000
O       30.71566152      12.91868150      18.57956262  F       11       0.00007656       0.00003875       0.00251226
O       34.12851211      12.91868175      19.30782007  F       12       0.00024357      -0.00002258       0.00436264
O       29.39862546      14.53351648      20.64643965  F       13      -0.00544014       0.00013198      -0.00033649
O       32.03269702      14.53351646      20.64644013  F       14       0.00630911       0.00003333      -0.00014081
Sn      34.12851212      14.53351682      20.64643955  F       15      -0.00096483       0.00006247      -0.00042239
Sn      30.71566115      16.14835157      20.64643991  F       16      -0.00049284      -0.00000026       0.00059880
O       34.12851211      12.91868157      21.98505885  F       17       0.00080294      -0.00013569      -0.00372579
O       30.71566109      16.14835175      22.71331588  F       18       0.00072191      -0.00003959      -0.00302376
O       28.63820568      14.53351665      24.05084986  F       19       0.00069816       0.00090316       0.00281632
O       32.79311724      14.53351647      24.05085043  F       20       0.00005230      -0.00134625       0.00078554
Sn      27.30281081      16.14835174      24.11991567  F       21      -0.00937103       0.00007406      -0.02170430
Sn      30.71566108      14.53351654      23.99493530  F       22      -0.00096873      -0.00094060       0.01331281
O       30.71566137      12.91868158      25.32920843  F       23      -0.00456557       0.00015328       0.00662971
O       27.30013938      16.14860300      26.19169504  T       24       0.00249142      -0.00031775      -0.00132108
O       29.45501022      14.53328196      27.65707937  T       25      -0.00070673       0.00257631       0.00036380
O       31.96254421      14.53333764      27.65346252  T       26       0.00367856       0.00043510       0.00098765
Sn      34.12168390      14.53359274      27.66049715  T       27       0.00341536       0.00045731       0.00099623
Sn      30.70826288      12.91802144      27.35713904  T       28      -0.00023972       0.00269058      -0.00019675
O       34.12063011      16.14844263      28.86098857  T       29       0.00599329       0.00024744       0.00089484
P       16.53224897       8.07455717      30.21395448  T        0      -0.00479686       0.00001964       0.01162535
O       15.03017208       8.07151772      30.49253284  T        0      -0.01705611       0.00175308       0.00140193
O       16.98108245       6.76727416      29.48952363  T        0       0.00295442       0.00537801      -0.01313224
O       16.97523589       9.38307355      29.48786834  T        0       0.00469886      -0.00576824      -0.00525105
C       17.53233561       8.08129741      31.72903991  T        0       0.01727234       0.00467868      -0.00320458
H       17.29417925       8.97513616      32.31364331  T        0      -0.00776692      -0.00130613      -0.00197826
H       17.31674671       7.17874559      32.30905537  T        0       0.00109277       0.00210378      -0.00627711
H       18.59050470       8.09784992      31.43647878  T        0      -0.01743908      -0.00864589      -0.00665583
H       14.21020761       9.40148868      29.62659666  T        0       0.00852188       0.00010210      -0.00018343
H       14.20891978       6.74578429      29.62765557  T        0       0.01366818       0.00183210      -0.00335217
